! Created with skrf 2.1.0 (http://scikit-rf.org).
# GHz S RI R 50.0 
!freq ReS11 ImS11 ReS21 ImS21 ReS12 ImS12 ReS22 ImS22
8.0 0.0 0.0 -0.09270843029072065 -0.8820617937648041 -0.09270843029072065 -0.8820617937648041 0.0 0.0
8.025 0.0 0.0 -0.09732560311572626 -0.8815642846921111 -0.09732560311572626 -0.8815642846921111 0.0 0.0
8.05 0.0 0.0 -0.10194010771015899 -0.8810426070892341 -0.10194010771015899 -0.8810426070892341 0.0 0.0
8.075 0.0 0.0 -0.10655181756504396 -0.8804967752582282 -0.10655181756504396 -0.8804967752582282 0.0 0.0
8.1 0.0 0.0 -0.11116060624802614 -0.879926804163349 -0.11116060624802614 -0.879926804163349 0.0 0.0
8.125 0.0 0.0 -0.1157663474068358 -0.8793327094306416 -0.1157663474068358 -0.8793327094306416 0.0 0.0
8.15 0.0 0.0 -0.12036891477275219 -0.8787145073475134 -0.12036891477275219 -0.8787145073475134 0.0 0.0
8.175 0.0 0.0 -0.12496818216406615 -0.8780722148622869 -0.12496818216406615 -0.8780722148622869 0.0 0.0
8.2 0.0 0.0 -0.12956402348953902 -0.8774058495837348 -0.12956402348953902 -0.8774058495837348 0.0 0.0
8.225 0.0 0.0 -0.13415631275185896 -0.876715429780598 -0.13415631275185896 -0.876715429780598 0.0 0.0
8.25 0.0 0.0 -0.13874492405109623 -0.8760009743810842 -0.13874492405109623 -0.8760009743810842 0.0 0.0
8.275 0.0 0.0 -0.14332973158815449 -0.8752625029723488 -0.14332973158815449 -0.8752625029723488 0.0 0.0
8.3 0.0 0.0 -0.14791060966821862 -0.8745000357999588 -0.14791060966821862 -0.8745000357999588 0.0 0.0
8.325 0.0 0.0 -0.15248743270420193 -0.8737135937673368 -0.15248743270420193 -0.8737135937673368 0.0 0.0
8.35 0.0 0.0 -0.15706007522018922 -0.8729031984351884 -0.15706007522018922 -0.8729031984351884 0.0 0.0
8.375 0.0 0.0 -0.16162841185487617 -0.872068872020911 -0.16162841185487617 -0.872068872020911 0.0 0.0
8.4 0.0 0.0 -0.16619231736500592 -0.8712106373979845 -0.16619231736500592 -0.8712106373979845 0.0 0.0
8.425 0.0 0.0 -0.17075166662880367 -0.8703285180953451 -0.17075166662880367 -0.8703285180953451 0.0 0.0
8.45 0.0 0.0 -0.1753063346494064 -0.8694225382967385 -0.1753063346494064 -0.8694225382967385 0.0 0.0
8.475 0.0 0.0 -0.17985619655828916 -0.8684927228400589 -0.17985619655828916 -0.8684927228400589 0.0 0.0
8.5 0.0 0.0 -0.18440112761868954 -0.8675390972166668 -0.18440112761868954 -0.8675390972166668 0.0 0.0
8.525 0.0 0.0 -0.18894100322902688 -0.86656168757069 -0.18894100322902688 -0.86656168757069 0.0 0.0
8.55 0.0 0.0 -0.19347569892631764 -0.8655605206983081 -0.19347569892631764 -0.8655605206983081 0.0 0.0
8.575 0.0 0.0 -0.1980050903895888 -0.8645356240470164 -0.1980050903895888 -0.8645356240470164 0.0 0.0
8.6 0.0 0.0 -0.20252905344328553 -0.8634870257148743 -0.20252905344328553 -0.8634870257148743 0.0 0.0
8.625 0.0 0.0 -0.20704746406067548 -0.8624147544497349 -0.20704746406067548 -0.8624147544497349 0.0 0.0
8.65 0.0 0.0 -0.21156019836724857 -0.8613188396484567 -0.21156019836724857 -0.8613188396484567 0.0 0.0
8.675 0.0 0.0 -0.2160671326441147 -0.8601993113560972 -0.2160671326441147 -0.8601993113560972 0.0 0.0
8.7 0.0 0.0 -0.22056814333139368 -0.8590562002650903 -0.22056814333139368 -0.8590562002650903 0.0 0.0
8.725 0.0 0.0 -0.22506310703160404 -0.8578895377144042 -0.22506310703160404 -0.8578895377144042 0.0 0.0
8.75 0.0 0.0 -0.22955190051304547 -0.8566993556886816 -0.22955190051304547 -0.8566993556886816 0.0 0.0
8.775 0.0 0.0 -0.23403440071317683 -0.8554856868173643 -0.23403440071317683 -0.8554856868173643 0.0 0.0
8.8 0.0 0.0 -0.23851048474199102 -0.8542485643737974 -0.23851048474199102 -0.8542485643737974 0.0 0.0
8.825 0.0 0.0 -0.24298002988538345 -0.8529880222743175 -0.24298002988538345 -0.8529880222743175 0.0 0.0
8.85 0.0 0.0 -0.24744291360851592 -0.8517040950773231 -0.24744291360851592 -0.8517040950773231 0.0 0.0
8.875 0.0 0.0 -0.2518990135591769 -0.850396817982327 -0.2518990135591769 -0.850396817982327 0.0 0.0
8.9 0.0 0.0 -0.25634820757113547 -0.8490662268289908 -0.25634820757113547 -0.8490662268289908 0.0 0.0
8.925 0.0 0.0 -0.26079037366748986 -0.8477123580961436 -0.26079037366748986 -0.8477123580961436 0.0 0.0
8.95 0.0 0.0 -0.2652253900640129 -0.8463352489007802 -0.2652253900640129 -0.8463352489007802 0.0 0.0
8.975 0.0 0.0 -0.26965313517249 -0.8449349369970449 -0.26965313517249 -0.8449349369970449 0.0 0.0
9.0 0.0 0.0 -0.27407348760405187 -0.843511460775196 -0.27407348760405187 -0.843511460775196 0.0 0.0
9.025 0.0 0.0 -0.2784863261725037 -0.8420648592605532 -0.2784863261725037 -0.8420648592605532 0.0 0.0
9.05 0.0 0.0 -0.2828915298976472 -0.8405951721124277 -0.2828915298976472 -0.8405951721124277 0.0 0.0
9.075 0.0 0.0 -0.2872889780085969 -0.8391024396230351 -0.2872889780085969 -0.8391024396230351 0.0 0.0
9.1 0.0 0.0 -0.29167854994709136 -0.8375867027163908 -0.29167854994709136 -0.8375867027163908 0.0 0.0
9.125 0.0 0.0 -0.2960601253707989 -0.8360480029471873 -0.2960601253707989 -0.8360480029471873 0.0 0.0
9.15 0.0 0.0 -0.3004335841566155 -0.8344863824996566 -0.3004335841566155 -0.8344863824996566 0.0 0.0
9.175 0.0 0.0 -0.30479880640395945 -0.8329018841864119 -0.30479880640395945 -0.8329018841864119 0.0 0.0
9.2 0.0 0.0 -0.309155672438058 -0.8312945514472746 -0.309155672438058 -0.8312945514472746 0.0 0.0
9.225 0.0 0.0 -0.3135040628132277 -0.8296644283480841 -0.3135040628132277 -0.8296644283480841 0.0 0.0
9.25 0.0 0.0 -0.31784385831614975 -0.8280115595794884 -0.31784385831614975 -0.8280115595794884 0.0 0.0
9.275 0.0 0.0 -0.3221749399691389 -0.8263359904557196 -0.3221749399691389 -0.8263359904557196 0.0 0.0
9.3 0.0 0.0 -0.32649718903340263 -0.824637766913352 -0.32649718903340263 -0.824637766913352 0.0 0.0
9.325 0.0 0.0 -0.33081048701230037 -0.8229169355100416 -0.33081048701230037 -0.8229169355100416 0.0 0.0
9.35 0.0 0.0 -0.3351147156545893 -0.8211735434232506 -0.3351147156545893 -0.8211735434232506 0.0 0.0
9.375 0.0 0.0 -0.33940975695766634 -0.8194076384489537 -0.33940975695766634 -0.8194076384489537 0.0 0.0
9.4 0.0 0.0 -0.34369549317080456 -0.817619269000328 -0.34369549317080456 -0.817619269000328 0.0 0.0
9.425 0.0 0.0 -0.347971806798381 -0.8158084841064253 -0.347971806798381 -0.8158084841064253 0.0 0.0
9.45 0.0 0.0 -0.3522385806030976 -0.813975333410828 -0.3522385806030976 -0.813975333410828 0.0 0.0
9.475 0.0 0.0 -0.3564956976091946 -0.8121198671702885 -0.3564956976091946 -0.8121198671702885 0.0 0.0
9.5 0.0 0.0 -0.36074304110565936 -0.8102421362533511 -0.36074304110565936 -0.8102421362533511 0.0 0.0
9.525 0.0 0.0 -0.364980494649424 -0.8083421921389574 -0.364980494649424 -0.8083421921389574 0.0 0.0
9.55 0.0 0.0 -0.3692079420685592 -0.8064200869150352 -0.3692079420685592 -0.8064200869150352 0.0 0.0
9.575 0.0 0.0 -0.37342526746545873 -0.8044758732770697 -0.37342526746545873 -0.8044758732770697 0.0 0.0
9.6 0.0 0.0 -0.3776323552200162 -0.8025096045266603 -0.3776323552200162 -0.8025096045266603 0.0 0.0
9.625 0.0 0.0 -0.3818290899927954 -0.8005213345700583 -0.3818290899927954 -0.8005213345700583 0.0 0.0
9.65 0.0 0.0 -0.3860153567281932 -0.7985111179166882 -0.3860153567281932 -0.7985111179166882 0.0 0.0
9.675 0.0 0.0 -0.39019104065759197 -0.7964790096776555 -0.39019104065759197 -0.7964790096776555 0.0 0.0
9.7 0.0 0.0 -0.3943560273025072 -0.7944250655642341 -0.3943560273025072 -0.7944250655642341 0.0 0.0
9.725 0.0 0.0 -0.3985102024777267 -0.792349341886339 -0.3985102024777267 -0.792349341886339 0.0 0.0
9.75 0.0 0.0 -0.40265345229443933 -0.7902518955509837 -0.40265345229443933 -0.7902518955509837 0.0 0.0
9.775 0.0 0.0 -0.40678566316335835 -0.7881327840607191 -0.40678566316335835 -0.7881327840607191 0.0 0.0
9.8 0.0 0.0 -0.4109067217978351 -0.7859920655120571 -0.4109067217978351 -0.7859920655120571 0.0 0.0
9.825 0.0 0.0 -0.41501651521696636 -0.7838297985938777 -0.41501651521696636 -0.7838297985938777 0.0 0.0
9.85 0.0 0.0 -0.4191149307486881 -0.7816460425858214 -0.4191149307486881 -0.7816460425858214 0.0 0.0
9.875 0.0 0.0 -0.42320185603286936 -0.7794408573566617 -0.42320185603286936 -0.7794408573566617 0.0 0.0
9.9 0.0 0.0 -0.4272771790243886 -0.7772143033626657 -0.4272771790243886 -0.7772143033626657 0.0 0.0
9.925 0.0 0.0 -0.431340787996207 -0.7749664416459364 -0.431340787996207 -0.7749664416459364 0.0 0.0
9.95 0.0 0.0 -0.43539257154243255 -0.7726973338327376 -0.43539257154243255 -0.7726973338327376 0.0 0.0
9.975 0.0 0.0 -0.4394324185813723 -0.7704070421318064 -0.4394324185813723 -0.7704070421318064 0.0 0.0
10.0 0.0 0.0 -0.4434602183585785 -0.7680956293326471 -0.4434602183585785 -0.7680956293326471 0.0 0.0
10.025 0.0 0.0 -0.4474758604498865 -0.7657631588038086 -0.4474758604498865 -0.7657631588038086 0.0 0.0
10.05 0.0 0.0 -0.45147923476443946 -0.763409694491149 -0.45147923476443946 -0.763409694491149 0.0 0.0
10.075 0.0 0.0 -0.4554702315477078 -0.7610353009160815 -0.4554702315477078 -0.7610353009160815 0.0 0.0
10.1 0.0 0.0 -0.45944874138449954 -0.758640043173805 -0.45944874138449954 -0.758640043173805 0.0 0.0
10.125 0.0 0.0 -0.46341465520195757 -0.7562239869315203 -0.46341465520195757 -0.7562239869315203 0.0 0.0
10.15 0.0 0.0 -0.4673678642725504 -0.7537871984266303 -0.4673678642725504 -0.7537871984266303 0.0 0.0
10.175 0.0 0.0 -0.471308260217055 -0.7513297444649227 -0.471308260217055 -0.7513297444649227 0.0 0.0
10.2 0.0 0.0 -0.4752357350075267 -0.7488516924187387 -0.4752357350075267 -0.7488516924187387 0.0 0.0
10.225 0.0 0.0 -0.4791501809702589 -0.7463531102251276 -0.4791501809702589 -0.7463531102251276 0.0 0.0
10.25 0.0 0.0 -0.48305149078873905 -0.7438340663839819 -0.48305149078873905 -0.7438340663839819 0.0 0.0
10.275 0.0 0.0 -0.48693955750658763 -0.7412946299561612 -0.48693955750658763 -0.7412946299561612 0.0 0.0
10.3 0.0 0.0 -0.49081427453049103 -0.7387348705615981 -0.49081427453049103 -0.7387348705615981 0.0 0.0
10.325 0.0 0.0 -0.49467553563312533 -0.7361548583773891 -0.49467553563312533 -0.7361548583773891 0.0 0.0
10.35 0.0 0.0 -0.4985232349560668 -0.7335546641358717 -0.4985232349560668 -0.7335546641358717 0.0 0.0
10.375 0.0 0.0 -0.5023572670126943 -0.7309343591226848 -0.5023572670126943 -0.7309343591226848 0.0 0.0
10.4 0.0 0.0 -0.5061775266910831 -0.7282940151748134 -0.5061775266910831 -0.7282940151748134 0.0 0.0
10.425 0.0 0.0 -0.5099839092568839 -0.7256337046786208 -0.5099839092568839 -0.7256337046786208 0.0 0.0
10.45 0.0 0.0 -0.5137763103561955 -0.7229535005678634 -0.5137763103561955 -0.7229535005678634 0.0 0.0
10.475 0.0 0.0 -0.5175546260184267 -0.7202534763216905 -0.5175546260184267 -0.7202534763216905 0.0 0.0
10.5 0.0 0.0 -0.5213187526591452 -0.7175337059626303 -0.5213187526591452 -0.7175337059626303 0.0 0.0
10.525 0.0 0.0 -0.5250685870829165 -0.7147942640545621 -0.5250685870829165 -0.7147942640545621 0.0 0.0
10.55 0.0 0.0 -0.5288040264861367 -0.712035225700669 -0.5288040264861367 -0.712035225700669 0.0 0.0
10.575 0.0 0.0 -0.5325249684598473 -0.7092566665413811 -0.5325249684598473 -0.7092566665413811 0.0 0.0
10.6 0.0 0.0 -0.5362313109925444 -0.7064586627523018 -0.5362313109925444 -0.7064586627523018 0.0 0.0
10.625 0.0 0.0 -0.5399229524729754 -0.7036412910421179 -0.5399229524729754 -0.7036412910421179 0.0 0.0
10.65 0.0 0.0 -0.5435997916929243 -0.7008046286504982 -0.5435997916929243 -0.7008046286504982 0.0 0.0
10.675 0.0 0.0 -0.5472617278499862 -0.6979487533459753 -0.5472617278499862 -0.6979487533459753 0.0 0.0
10.7 0.0 0.0 -0.5509086605503319 -0.6950737434238129 -0.5509086605503319 -0.6950737434238129 0.0 0.0
10.725 0.0 0.0 -0.5545404898114593 -0.6921796777038605 -0.5545404898114593 -0.6921796777038605 0.0 0.0
10.75 0.0 0.0 -0.558157116064934 -0.689266635528392 -0.558157116064934 -0.689266635528392 0.0 0.0
10.775 0.0 0.0 -0.561758440159121 -0.6863346967599296 -0.561758440159121 -0.6863346967599296 0.0 0.0
10.8 0.0 0.0 -0.5653443633619009 -0.6833839417790561 -0.5653443633619009 -0.6833839417790561 0.0 0.0
10.825 0.0 0.0 -0.5689147873633773 -0.6804144514822099 -0.5689147873633773 -0.6804144514822099 0.0 0.0
10.85 0.0 0.0 -0.572469614278573 -0.6774263072794672 -0.572469614278573 -0.6774263072794672 0.0 0.0
10.875 0.0 0.0 -0.576008746650112 -0.6744195910923113 -0.576008746650112 -0.6744195910923113 0.0 0.0
10.9 0.0 0.0 -0.5795320874508931 -0.6713943853513847 -0.5795320874508931 -0.6713943853513847 0.0 0.0
10.925 0.0 0.0 -0.5830395400867483 -0.6683507729942313 -0.5830395400867483 -0.6683507729942313 0.0 0.0
10.95 0.0 0.0 -0.5865310083990916 -0.6652888374630211 -0.5865310083990916 -0.6652888374630211 0.0 0.0
10.975 0.0 0.0 -0.5900063966675552 -0.662208662702264 -0.5900063966675552 -0.662208662702264 0.0 0.0
11.0 0.0 0.0 -0.593465609612615 -0.6591103331565062 -0.593465609612615 -0.6591103331565062 0.0 0.0
11.025 0.0 0.0 -0.5969085523982001 -0.6559939337680177 -0.5969085523982001 -0.6559939337680177 0.0 0.0
11.05 0.0 0.0 -0.6003351306342948 -0.6528595499744624 -0.6003351306342948 -0.6528595499744624 0.0 0.0
11.075 0.0 0.0 -0.6037452503795263 -0.6497072677065545 -0.6037452503795263 -0.6497072677065545 0.0 0.0
11.1 0.0 0.0 -0.6071388181437388 -0.646537173385705 -0.6071388181437388 -0.646537173385705 0.0 0.0
11.125 0.0 0.0 -0.6105157408905577 -0.6433493539216517 -0.6105157408905577 -0.6433493539216517 0.0 0.0
11.15 0.0 0.0 -0.6138759260399406 -0.6401438967100747 -0.6138759260399406 -0.6401438967100747 0.0 0.0
11.175 0.0 0.0 -0.6172192814707138 -0.6369208896302029 -0.6172192814707138 -0.6369208896302029 0.0 0.0
11.2 0.0 0.0 -0.6205457155230991 -0.6336804210424039 -0.6205457155230991 -0.6336804210424039 0.0 0.0
11.225 0.0 0.0 -0.6238551370012272 -0.6304225797857603 -0.6238551370012272 -0.6304225797857603 0.0 0.0
11.25 0.0 0.0 -0.6271474551756362 -0.6271474551756363 -0.6271474551756362 -0.6271474551756363 0.0 0.0
11.275 0.0 0.0 -0.6304225797857602 -0.6238551370012273 -0.6304225797857602 -0.6238551370012273 0.0 0.0
11.3 0.0 0.0 -0.6336804210424035 -0.6205457155230996 -0.6336804210424035 -0.6205457155230996 0.0 0.0
11.325 0.0 0.0 -0.6369208896302028 -0.6172192814707139 -0.6369208896302028 -0.6172192814707139 0.0 0.0
11.35 0.0 0.0 -0.6401438967100745 -0.6138759260399407 -0.6401438967100745 -0.6138759260399407 0.0 0.0
11.375 0.0 0.0 -0.6433493539216516 -0.6105157408905578 -0.6433493539216516 -0.6105157408905578 0.0 0.0
11.4 0.0 0.0 -0.6465371733857053 -0.6071388181437387 -0.6465371733857053 -0.6071388181437387 0.0 0.0
11.425 0.0 0.0 -0.6497072677065546 -0.6037452503795261 -0.6497072677065546 -0.6037452503795261 0.0 0.0
11.45 0.0 0.0 -0.6528595499744623 -0.6003351306342949 -0.6528595499744623 -0.6003351306342949 0.0 0.0
11.475 0.0 0.0 -0.655993933768018 -0.5969085523982 -0.655993933768018 -0.5969085523982 0.0 0.0
11.5 0.0 0.0 -0.6591103331565064 -0.5934656096126147 -0.6591103331565064 -0.5934656096126147 0.0 0.0
11.525 0.0 0.0 -0.6622086627022641 -0.590006396667555 -0.6622086627022641 -0.590006396667555 0.0 0.0
11.55 0.0 0.0 -0.6652888374630214 -0.5865310083990913 -0.6652888374630214 -0.5865310083990913 0.0 0.0
11.575 0.0 0.0 -0.6683507729942314 -0.5830395400867481 -0.6683507729942314 -0.5830395400867481 0.0 0.0
11.6 0.0 0.0 -0.671394385351385 -0.579532087450893 -0.671394385351385 -0.579532087450893 0.0 0.0
11.625 0.0 0.0 -0.6744195910923113 -0.5760087466501121 -0.6744195910923113 -0.5760087466501121 0.0 0.0
11.65 0.0 0.0 -0.6774263072794674 -0.5724696142785728 -0.6774263072794674 -0.5724696142785728 0.0 0.0
11.675 0.0 0.0 -0.68041445148221 -0.5689147873633772 -0.68041445148221 -0.5689147873633772 0.0 0.0
11.7 0.0 0.0 -0.683383941779056 -0.565344363361901 -0.683383941779056 -0.565344363361901 0.0 0.0
11.725 0.0 0.0 -0.6863346967599295 -0.5617584401591211 -0.6863346967599295 -0.5617584401591211 0.0 0.0
11.75 0.0 0.0 -0.6892666355283918 -0.5581571160649341 -0.6892666355283918 -0.5581571160649341 0.0 0.0
11.775 0.0 0.0 -0.6921796777038604 -0.5545404898114594 -0.6921796777038604 -0.5545404898114594 0.0 0.0
11.8 0.0 0.0 -0.6950737434238128 -0.5509086605503322 -0.6950737434238128 -0.5509086605503322 0.0 0.0
11.825 0.0 0.0 -0.6979487533459752 -0.5472617278499863 -0.6979487533459752 -0.5472617278499863 0.0 0.0
11.85 0.0 0.0 -0.7008046286504981 -0.5435997916929245 -0.7008046286504981 -0.5435997916929245 0.0 0.0
11.875 0.0 0.0 -0.7036412910421178 -0.5399229524729756 -0.7036412910421178 -0.5399229524729756 0.0 0.0
11.9 0.0 0.0 -0.7064586627523018 -0.5362313109925444 -0.7064586627523018 -0.5362313109925444 0.0 0.0
11.925 0.0 0.0 -0.709256666541381 -0.5325249684598475 -0.709256666541381 -0.5325249684598475 0.0 0.0
11.95 0.0 0.0 -0.7120352257006691 -0.5288040264861364 -0.7120352257006691 -0.5288040264861364 0.0 0.0
11.975 0.0 0.0 -0.714794264054562 -0.5250685870829166 -0.714794264054562 -0.5250685870829166 0.0 0.0
12.0 0.0 0.0 -0.7175337059626302 -0.5213187526591453 -0.7175337059626302 -0.5213187526591453 0.0 0.0
12.025 0.0 0.0 -0.7202534763216903 -0.5175546260184268 -0.7202534763216903 -0.5175546260184268 0.0 0.0
12.05 0.0 0.0 -0.7229535005678631 -0.5137763103561959 -0.7229535005678631 -0.5137763103561959 0.0 0.0
12.075 0.0 0.0 -0.7256337046786207 -0.509983909256884 -0.7256337046786207 -0.509983909256884 0.0 0.0
12.1 0.0 0.0 -0.7282940151748133 -0.5061775266910832 -0.7282940151748133 -0.5061775266910832 0.0 0.0
12.125 0.0 0.0 -0.7309343591226847 -0.5023572670126945 -0.7309343591226847 -0.5023572670126945 0.0 0.0
12.15 0.0 0.0 -0.7335546641358719 -0.4985232349560666 -0.7335546641358719 -0.4985232349560666 0.0 0.0
12.175 0.0 0.0 -0.736154858377389 -0.49467553563312555 -0.736154858377389 -0.49467553563312555 0.0 0.0
12.2 0.0 0.0 -0.7387348705615983 -0.4908142745304908 -0.7387348705615983 -0.4908142745304908 0.0 0.0
12.225 0.0 0.0 -0.7412946299561616 -0.48693955750658713 -0.7412946299561616 -0.48693955750658713 0.0 0.0
12.25 0.0 0.0 -0.7438340663839819 -0.48305149078873927 -0.7438340663839819 -0.48305149078873927 0.0 0.0
12.275 0.0 0.0 -0.7463531102251277 -0.4791501809702587 -0.7463531102251277 -0.4791501809702587 0.0 0.0
12.3 0.0 0.0 -0.7488516924187391 -0.47523573500752614 -0.7488516924187391 -0.47523573500752614 0.0 0.0
12.325 0.0 0.0 -0.7513297444649226 -0.47130826021705513 -0.7513297444649226 -0.47130826021705513 0.0 0.0
12.35 0.0 0.0 -0.7537871984266306 -0.4673678642725502 -0.7537871984266306 -0.4673678642725502 0.0 0.0
12.375 0.0 0.0 -0.7562239869315206 -0.46341465520195707 -0.7562239869315206 -0.46341465520195707 0.0 0.0
12.4 0.0 0.0 -0.7586400431738048 -0.45944874138449965 -0.7586400431738048 -0.45944874138449965 0.0 0.0
12.425 0.0 0.0 -0.7610353009160814 -0.455470231547708 -0.7610353009160814 -0.455470231547708 0.0 0.0
12.45 0.0 0.0 -0.7634096944911491 -0.45147923476443924 -0.7634096944911491 -0.45147923476443924 0.0 0.0
12.475 0.0 0.0 -0.7657631588038085 -0.44747586044988674 -0.7657631588038085 -0.44747586044988674 0.0 0.0
12.5 0.0 0.0 -0.7680956293326471 -0.4434602183585787 -0.7680956293326471 -0.4434602183585787 0.0 0.0
12.525 0.0 0.0 -0.7704070421318066 -0.43943241858137205 -0.7704070421318066 -0.43943241858137205 0.0 0.0
12.55 0.0 0.0 -0.7726973338327375 -0.4353925715424327 -0.7726973338327375 -0.4353925715424327 0.0 0.0
12.575 0.0 0.0 -0.7749664416459363 -0.4313407879962072 -0.7749664416459363 -0.4313407879962072 0.0 0.0
12.6 0.0 0.0 -0.7772143033626658 -0.4272771790243884 -0.7772143033626658 -0.4272771790243884 0.0 0.0
12.625 0.0 0.0 -0.7794408573566616 -0.42320185603286953 -0.7794408573566616 -0.42320185603286953 0.0 0.0
12.65 0.0 0.0 -0.7816460425858213 -0.4191149307486883 -0.7816460425858213 -0.4191149307486883 0.0 0.0
12.675 0.0 0.0 -0.7838297985938779 -0.41501651521696614 -0.7838297985938779 -0.41501651521696614 0.0 0.0
12.7 0.0 0.0 -0.7859920655120568 -0.4109067217978356 -0.7859920655120568 -0.4109067217978356 0.0 0.0
12.725 0.0 0.0 -0.7881327840607191 -0.4067856631633585 -0.7881327840607191 -0.4067856631633585 0.0 0.0
12.75 0.0 0.0 -0.7902518955509837 -0.4026534522944395 -0.7902518955509837 -0.4026534522944395 0.0 0.0
12.775 0.0 0.0 -0.7923493418863388 -0.3985102024777272 -0.7923493418863388 -0.3985102024777272 0.0 0.0
12.8 0.0 0.0 -0.7944250655642338 -0.39435602730250774 -0.7944250655642338 -0.39435602730250774 0.0 0.0
12.825 0.0 0.0 -0.7964790096776554 -0.39019104065759214 -0.7964790096776554 -0.39019104065759214 0.0 0.0
12.85 0.0 0.0 -0.7985111179166882 -0.3860153567281933 -0.7985111179166882 -0.3860153567281933 0.0 0.0
12.875 0.0 0.0 -0.8005213345700584 -0.3818290899927952 -0.8005213345700584 -0.3818290899927952 0.0 0.0
12.9 0.0 0.0 -0.8025096045266602 -0.37763235522001637 -0.8025096045266602 -0.37763235522001637 0.0 0.0
12.925 0.0 0.0 -0.8044758732770696 -0.3734252674654589 -0.8044758732770696 -0.3734252674654589 0.0 0.0
12.95 0.0 0.0 -0.8064200869150352 -0.369207942068559 -0.8064200869150352 -0.369207942068559 0.0 0.0
12.975 0.0 0.0 -0.8083421921389572 -0.36498049464942434 -0.8083421921389572 -0.36498049464942434 0.0 0.0
13.0 0.0 0.0 -0.8102421362533512 -0.3607430411056592 -0.8102421362533512 -0.3607430411056592 0.0 0.0
13.025 0.0 0.0 -0.8121198671702886 -0.3564956976091944 -0.8121198671702886 -0.3564956976091944 0.0 0.0
13.05 0.0 0.0 -0.813975333410828 -0.35223858060309754 -0.813975333410828 -0.35223858060309754 0.0 0.0
13.075 0.0 0.0 -0.8158084841064253 -0.347971806798381 -0.8158084841064253 -0.347971806798381 0.0 0.0
13.1 0.0 0.0 -0.8176192690003281 -0.3436954931708044 -0.8176192690003281 -0.3436954931708044 0.0 0.0
13.125 0.0 0.0 -0.8194076384489538 -0.33940975695766595 -0.8194076384489538 -0.33940975695766595 0.0 0.0
13.15 0.0 0.0 -0.8211735434232506 -0.3351147156545892 -0.8211735434232506 -0.3351147156545892 0.0 0.0
13.175 0.0 0.0 -0.8229169355100415 -0.3308104870123005 -0.8229169355100415 -0.3308104870123005 0.0 0.0
13.2 0.0 0.0 -0.824637766913352 -0.32649718903340263 -0.824637766913352 -0.32649718903340263 0.0 0.0
13.225 0.0 0.0 -0.8263359904557196 -0.3221749399691388 -0.8263359904557196 -0.3221749399691388 0.0 0.0
13.25 0.0 0.0 -0.8280115595794884 -0.3178438583161499 -0.8280115595794884 -0.3178438583161499 0.0 0.0
13.275 0.0 0.0 -0.8296644283480841 -0.3135040628132276 -0.8296644283480841 -0.3135040628132276 0.0 0.0
13.3 0.0 0.0 -0.8312945514472746 -0.30915567243805814 -0.8312945514472746 -0.30915567243805814 0.0 0.0
13.325 0.0 0.0 -0.8329018841864118 -0.3047988064039596 -0.8329018841864118 -0.3047988064039596 0.0 0.0
13.35 0.0 0.0 -0.8344863824996566 -0.3004335841566154 -0.8344863824996566 -0.3004335841566154 0.0 0.0
13.375 0.0 0.0 -0.8360480029471873 -0.29606012537079907 -0.8360480029471873 -0.29606012537079907 0.0 0.0
13.4 0.0 0.0 -0.8375867027163907 -0.2916785499470915 -0.8375867027163907 -0.2916785499470915 0.0 0.0
13.425 0.0 0.0 -0.8391024396230351 -0.2872889780085969 -0.8391024396230351 -0.2872889780085969 0.0 0.0
13.45 0.0 0.0 -0.8405951721124276 -0.28289152989764743 -0.8405951721124276 -0.28289152989764743 0.0 0.0
13.475 0.0 0.0 -0.8420648592605531 -0.27848632617250385 -0.8420648592605531 -0.27848632617250385 0.0 0.0
13.5 0.0 0.0 -0.843511460775196 -0.2740734876040518 -0.843511460775196 -0.2740734876040518 0.0 0.0
13.525 0.0 0.0 -0.8449349369970448 -0.26965313517249034 -0.8449349369970448 -0.26965313517249034 0.0 0.0
13.55 0.0 0.0 -0.84633524890078 -0.2652253900640134 -0.84633524890078 -0.2652253900640134 0.0 0.0
13.575 0.0 0.0 -0.8477123580961435 -0.26079037366749025 -0.8477123580961435 -0.26079037366749025 0.0 0.0
13.6 0.0 0.0 -0.8490662268289908 -0.2563482075711356 -0.8490662268289908 -0.2563482075711356 0.0 0.0
13.625 0.0 0.0 -0.850396817982327 -0.25189901355917665 -0.850396817982327 -0.25189901355917665 0.0 0.0
13.65 0.0 0.0 -0.851704095077323 -0.24744291360851628 -0.851704095077323 -0.24744291360851628 0.0 0.0
13.675 0.0 0.0 -0.8529880222743176 -0.24298002988538325 -0.8529880222743176 -0.24298002988538325 0.0 0.0
13.7 0.0 0.0 -0.8542485643737974 -0.23851048474199077 -0.8542485643737974 -0.23851048474199077 0.0 0.0
13.725 0.0 0.0 -0.8554856868173643 -0.23403440071317677 -0.8554856868173643 -0.23403440071317677 0.0 0.0
13.75 0.0 0.0 -0.8566993556886816 -0.22955190051304522 -0.8566993556886816 -0.22955190051304522 0.0 0.0
13.775 0.0 0.0 -0.8578895377144042 -0.2250631070316038 -0.8578895377144042 -0.2250631070316038 0.0 0.0
13.8 0.0 0.0 -0.8590562002650903 -0.22056814333139366 -0.8590562002650903 -0.22056814333139366 0.0 0.0
13.825 0.0 0.0 -0.8601993113560972 -0.21606713264411448 -0.8601993113560972 -0.21606713264411448 0.0 0.0
13.85 0.0 0.0 -0.8613188396484567 -0.21156019836724835 -0.8613188396484567 -0.21156019836724835 0.0 0.0
13.875 0.0 0.0 -0.8624147544497349 -0.20704746406067545 -0.8624147544497349 -0.20704746406067545 0.0 0.0
13.9 0.0 0.0 -0.8634870257148743 -0.2025290534432857 -0.8634870257148743 -0.2025290534432857 0.0 0.0
13.925 0.0 0.0 -0.8645356240470163 -0.19800509038958894 -0.8645356240470163 -0.19800509038958894 0.0 0.0
13.95 0.0 0.0 -0.865560520698308 -0.193475698926318 -0.865560520698308 -0.193475698926318 0.0 0.0
13.975 0.0 0.0 -0.86656168757069 -0.18894100322902707 -0.86656168757069 -0.18894100322902707 0.0 0.0
14.0 0.0 0.0 -0.8675390972166668 -0.1844011276186897 -0.8675390972166668 -0.1844011276186897 0.0 0.0
14.025 0.0 0.0 -0.8684927228400589 -0.1798561965582895 -0.8684927228400589 -0.1798561965582895 0.0 0.0
14.05 0.0 0.0 -0.8694225382967384 -0.17530633464940656 -0.8694225382967384 -0.17530633464940656 0.0 0.0
14.075 0.0 0.0 -0.870328518095345 -0.17075166662880387 -0.870328518095345 -0.17075166662880387 0.0 0.0
14.1 0.0 0.0 -0.8712106373979844 -0.1661923173650063 -0.8712106373979844 -0.1661923173650063 0.0 0.0
14.125 0.0 0.0 -0.8720688720209109 -0.16162841185487634 -0.8720688720209109 -0.16162841185487634 0.0 0.0
14.15 0.0 0.0 -0.8729031984351884 -0.15706007522018936 -0.8729031984351884 -0.15706007522018936 0.0 0.0
14.175 0.0 0.0 -0.8737135937673368 -0.1524874327042023 -0.8737135937673368 -0.1524874327042023 0.0 0.0
14.2 0.0 0.0 -0.8745000357999588 -0.14791060966821876 -0.8745000357999588 -0.14791060966821876 0.0 0.0
14.225 0.0 0.0 -0.8752625029723488 -0.14332973158815468 -0.8752625029723488 -0.14332973158815468 0.0 0.0
14.25 0.0 0.0 -0.876000974381084 -0.13874492405109695 -0.876000974381084 -0.13874492405109695 0.0 0.0
14.275 0.0 0.0 -0.8767154297805979 -0.13415631275185952 -0.8767154297805979 -0.13415631275185952 0.0 0.0
14.3 0.0 0.0 -0.8774058495837347 -0.12956402348953938 -0.8774058495837347 -0.12956402348953938 0.0 0.0
14.325 0.0 0.0 -0.8780722148622868 -0.1249681821640665 -0.8780722148622868 -0.1249681821640665 0.0 0.0
14.35 0.0 0.0 -0.8787145073475136 -0.12036891477275197 -0.8787145073475136 -0.12036891477275197 0.0 0.0
14.375 0.0 0.0 -0.8793327094306417 -0.11576634740683539 -0.8793327094306417 -0.11576634740683539 0.0 0.0
14.4 0.0 0.0 -0.879926804163349 -0.11116060624802608 -0.879926804163349 -0.11116060624802608 0.0 0.0
14.425 0.0 0.0 -0.8804967752582282 -0.10655181756504373 -0.8804967752582282 -0.10655181756504373 0.0 0.0
14.45 0.0 0.0 -0.8810426070892341 -0.10194010771015856 -0.8810426070892341 -0.10194010771015856 0.0 0.0
14.475 0.0 0.0 -0.8815642846921111 -0.09732560311572624 -0.8815642846921111 -0.09732560311572624 0.0 0.0
14.5 0.0 0.0 -0.8820617937648042 -0.09270843029072041 -0.8820617937648042 -0.09270843029072041 0.0 0.0
14.525 0.0 0.0 -0.8825351206678509 -0.08808871581726684 -0.8825351206678509 -0.08808871581726684 0.0 0.0
14.55 0.0 0.0 -0.882984252424755 -0.08346658634717184 -0.882984252424755 -0.08346658634717184 0.0 0.0
14.575 0.0 0.0 -0.8834091767223425 -0.07884216859844888 -0.8834091767223425 -0.07884216859844888 0.0 0.0
14.6 0.0 0.0 -0.8838098819110993 -0.07421558935184695 -0.8838098819110993 -0.07421558935184695 0.0 0.0
14.625 0.0 0.0 -0.8841863570054901 -0.06958697544737362 -0.8841863570054901 -0.06958697544737362 0.0 0.0
14.65 0.0 0.0 -0.88453859168426 -0.06495645378081637 -0.88453859168426 -0.06495645378081637 0.0 0.0
14.675 0.0 0.0 -0.8848665762907174 -0.0603241513002662 -0.8848665762907174 -0.0603241513002662 0.0 0.0
14.7 0.0 0.0 -0.8851703018329985 -0.05569019500263601 -0.8851703018329985 -0.05569019500263601 0.0 0.0
14.725 0.0 0.0 -0.8854497599843143 -0.05105471193017772 -0.8854497599843143 -0.05105471193017772 0.0 0.0
14.75 0.0 0.0 -0.8857049430831784 -0.04641782916700177 -0.8857049430831784 -0.04641782916700177 0.0 0.0
14.775 0.0 0.0 -0.8859358441336171 -0.04177967383559179 -0.8859358441336171 -0.04177967383559179 0.0 0.0
14.8 0.0 0.0 -0.8861424568053619 -0.03714037309331836 -0.8861424568053619 -0.03714037309331836 0.0 0.0
14.825 0.0 0.0 -0.8863247754340213 -0.03250005412895526 -0.8863247754340213 -0.03250005412895526 0.0 0.0
14.85 0.0 0.0 -0.8864827950212386 -0.027858844159191307 -0.8864827950212386 -0.027858844159191307 0.0 0.0
14.875 0.0 0.0 -0.8866165112348267 -0.023216870425141554 -0.8866165112348267 -0.023216870425141554 0.0 0.0
14.9 0.0 0.0 -0.8867259204088882 -0.018574260188861172 -0.8867259204088882 -0.018574260188861172 0.0 0.0
14.925 0.0 0.0 -0.8868110195439152 -0.013931140729855386 -0.8868110195439152 -0.013931140729855386 0.0 0.0
14.95 0.0 0.0 -0.886871806306872 -0.00928763934158883 -0.886871806306872 -0.00928763934158883 0.0 0.0
14.975 0.0 0.0 -0.8869082790312588 -0.004643883327998108 -0.8869082790312588 -0.004643883327998108 0.0 0.0
15.0 0.0 0.0 -0.8869204367171575 -5.024882233339989e-16 -0.8869204367171575 -5.024882233339989e-16 0.0 0.0
15.025 0.0 0.0 -0.8869082790312588 0.004643883327997498 -0.8869082790312588 0.004643883327997498 0.0 0.0
15.05 0.0 0.0 -0.886871806306872 0.009287639341589006 -0.886871806306872 0.009287639341589006 0.0 0.0
15.075 0.0 0.0 -0.8868110195439152 0.013931140729855167 -0.8868110195439152 0.013931140729855167 0.0 0.0
15.1 0.0 0.0 -0.8867259204088882 0.01857426018886135 -0.8867259204088882 0.01857426018886135 0.0 0.0
15.125 0.0 0.0 -0.8866165112348267 0.023216870425141728 -0.8866165112348267 0.023216870425141728 0.0 0.0
15.15 0.0 0.0 -0.8864827950212386 0.02785884415919109 -0.8864827950212386 0.02785884415919109 0.0 0.0
15.175 0.0 0.0 -0.8863247754340213 0.03250005412895543 -0.8863247754340213 0.03250005412895543 0.0 0.0
15.2 0.0 0.0 -0.8861424568053619 0.03714037309331854 -0.8861424568053619 0.03714037309331854 0.0 0.0
15.225 0.0 0.0 -0.8859358441336173 0.04177967383559157 -0.8859358441336173 0.04177967383559157 0.0 0.0
15.25 0.0 0.0 -0.8857049430831784 0.04641782916700194 -0.8857049430831784 0.04641782916700194 0.0 0.0
15.275 0.0 0.0 -0.8854497599843143 0.0510547119301779 -0.8854497599843143 0.0510547119301779 0.0 0.0
15.3 0.0 0.0 -0.8851703018329985 0.0556901950026358 -0.8851703018329985 0.0556901950026358 0.0 0.0
15.325 0.0 0.0 -0.8848665762907174 0.06032415130026638 -0.8848665762907174 0.06032415130026638 0.0 0.0
15.35 0.0 0.0 -0.88453859168426 0.06495645378081653 -0.88453859168426 0.06495645378081653 0.0 0.0
15.375 0.0 0.0 -0.8841863570054901 0.0695869754473734 -0.8841863570054901 0.0695869754473734 0.0 0.0
15.4 0.0 0.0 -0.8838098819110993 0.07421558935184713 -0.8838098819110993 0.07421558935184713 0.0 0.0
15.425 0.0 0.0 -0.8834091767223425 0.07884216859844904 -0.8834091767223425 0.07884216859844904 0.0 0.0
15.45 0.0 0.0 -0.882984252424755 0.08346658634717162 -0.882984252424755 0.08346658634717162 0.0 0.0
15.475 0.0 0.0 -0.8825351206678509 0.08808871581726702 -0.8825351206678509 0.08808871581726702 0.0 0.0
15.5 0.0 0.0 -0.8820617937648041 0.0927084302907206 -0.8820617937648041 0.0927084302907206 0.0 0.0
15.525 0.0 0.0 -0.8815642846921111 0.09732560311572602 -0.8815642846921111 0.09732560311572602 0.0 0.0
15.55 0.0 0.0 -0.8810426070892341 0.10194010771015874 -0.8810426070892341 0.10194010771015874 0.0 0.0
15.575 0.0 0.0 -0.8804967752582282 0.10655181756504391 -0.8804967752582282 0.10655181756504391 0.0 0.0
15.6 0.0 0.0 -0.879926804163349 0.11116060624802586 -0.879926804163349 0.11116060624802586 0.0 0.0
15.625 0.0 0.0 -0.8793327094306417 0.11576634740683556 -0.8793327094306417 0.11576634740683556 0.0 0.0
15.65 0.0 0.0 -0.8787145073475134 0.12036891477275213 -0.8787145073475134 0.12036891477275213 0.0 0.0
15.675 0.0 0.0 -0.8780722148622869 0.1249681821640659 -0.8780722148622869 0.1249681821640659 0.0 0.0
15.7 0.0 0.0 -0.8774058495837348 0.12956402348953877 -0.8774058495837348 0.12956402348953877 0.0 0.0
15.725 0.0 0.0 -0.876715429780598 0.13415631275185888 -0.876715429780598 0.13415631275185888 0.0 0.0
15.75 0.0 0.0 -0.8760009743810842 0.13874492405109598 -0.8760009743810842 0.13874492405109598 0.0 0.0
15.775 0.0 0.0 -0.8752625029723488 0.14332973158815485 -0.8752625029723488 0.14332973158815485 0.0 0.0
15.8 0.0 0.0 -0.8745000357999588 0.14791060966821853 -0.8745000357999588 0.14791060966821853 0.0 0.0
15.825 0.0 0.0 -0.8737135937673368 0.1524874327042021 -0.8737135937673368 0.1524874327042021 0.0 0.0
15.85 0.0 0.0 -0.8729031984351884 0.15706007522018953 -0.8729031984351884 0.15706007522018953 0.0 0.0
15.875 0.0 0.0 -0.872068872020911 0.16162841185487611 -0.872068872020911 0.16162841185487611 0.0 0.0
15.9 0.0 0.0 -0.8712106373979844 0.1661923173650061 -0.8712106373979844 0.1661923173650061 0.0 0.0
15.925 0.0 0.0 -0.870328518095345 0.17075166662880403 -0.870328518095345 0.17075166662880403 0.0 0.0
15.95 0.0 0.0 -0.8694225382967385 0.17530633464940634 -0.8694225382967385 0.17530633464940634 0.0 0.0
15.975 0.0 0.0 -0.8684927228400589 0.17985619655828927 -0.8684927228400589 0.17985619655828927 0.0 0.0
16.0 0.0 0.0 -0.8675390972166667 0.18440112761868988 -0.8675390972166667 0.18440112761868988 0.0 0.0
16.025 0.0 0.0 -0.86656168757069 0.18894100322902724 -0.86656168757069 0.18894100322902724 0.0 0.0
16.05 0.0 0.0 -0.8655605206983081 0.19347569892631777 -0.8655605206983081 0.19347569892631777 0.0 0.0
16.075 0.0 0.0 -0.8645356240470163 0.1980050903895891 -0.8645356240470163 0.1980050903895891 0.0 0.0
16.1 0.0 0.0 -0.8634870257148742 0.20252905344328587 -0.8634870257148742 0.20252905344328587 0.0 0.0
16.125 0.0 0.0 -0.862414754449735 0.20704746406067523 -0.862414754449735 0.20704746406067523 0.0 0.0
16.15 0.0 0.0 -0.8613188396484567 0.21156019836724851 -0.8613188396484567 0.21156019836724851 0.0 0.0
16.175 0.0 0.0 -0.8601993113560972 0.21606713264411465 -0.8601993113560972 0.21606713264411465 0.0 0.0
16.2 0.0 0.0 -0.8590562002650904 0.22056814333139343 -0.8590562002650904 0.22056814333139343 0.0 0.0
16.225 0.0 0.0 -0.8578895377144042 0.22506310703160398 -0.8578895377144042 0.22506310703160398 0.0 0.0
16.25 0.0 0.0 -0.8566993556886816 0.22955190051304541 -0.8566993556886816 0.22955190051304541 0.0 0.0
16.275 0.0 0.0 -0.8554856868173644 0.23403440071317658 -0.8554856868173644 0.23403440071317658 0.0 0.0
16.3 0.0 0.0 -0.8542485643737974 0.23851048474199096 -0.8542485643737974 0.23851048474199096 0.0 0.0
16.325 0.0 0.0 -0.8529880222743175 0.2429800298853834 -0.8529880222743175 0.2429800298853834 0.0 0.0
16.35 0.0 0.0 -0.8517040950773231 0.24744291360851567 -0.8517040950773231 0.24744291360851567 0.0 0.0
16.375 0.0 0.0 -0.850396817982327 0.2518990135591768 -0.850396817982327 0.2518990135591768 0.0 0.0
16.4 0.0 0.0 -0.8490662268289909 0.2563482075711354 -0.8490662268289909 0.2563482075711354 0.0 0.0
16.425 0.0 0.0 -0.8477123580961436 0.26079037366748964 -0.8477123580961436 0.26079037366748964 0.0 0.0
16.45 0.0 0.0 -0.8463352489007802 0.26522539006401286 -0.8463352489007802 0.26522539006401286 0.0 0.0
16.475 0.0 0.0 -0.8449349369970448 0.2696531351724902 -0.8449349369970448 0.2696531351724902 0.0 0.0
16.5 0.0 0.0 -0.8435114607751961 0.2740734876040513 -0.8435114607751961 0.2740734876040513 0.0 0.0
16.525 0.0 0.0 -0.8420648592605531 0.27848632617250396 -0.8420648592605531 0.27848632617250396 0.0 0.0
16.55 0.0 0.0 -0.8405951721124277 0.2828915298976472 -0.8405951721124277 0.2828915298976472 0.0 0.0
16.575 0.0 0.0 -0.8391024396230351 0.287288978008597 -0.8391024396230351 0.287288978008597 0.0 0.0
16.6 0.0 0.0 -0.8375867027163907 0.2916785499470917 -0.8375867027163907 0.2916785499470917 0.0 0.0
16.625 0.0 0.0 -0.8360480029471874 0.29606012537079884 -0.8360480029471874 0.29606012537079884 0.0 0.0
16.65 0.0 0.0 -0.8344863824996566 0.3004335841566156 -0.8344863824996566 0.3004335841566156 0.0 0.0
16.675 0.0 0.0 -0.8329018841864118 0.3047988064039598 -0.8329018841864118 0.3047988064039598 0.0 0.0
16.7 0.0 0.0 -0.8312945514472747 0.30915567243805797 -0.8312945514472747 0.30915567243805797 0.0 0.0
16.725 0.0 0.0 -0.829664428348084 0.31350406281322774 -0.829664428348084 0.31350406281322774 0.0 0.0
16.75 0.0 0.0 -0.8280115595794884 0.31784385831615014 -0.8280115595794884 0.31784385831615014 0.0 0.0
16.775 0.0 0.0 -0.8263359904557197 0.32217493996913865 -0.8263359904557197 0.32217493996913865 0.0 0.0
16.8 0.0 0.0 -0.824637766913352 0.3264971890334028 -0.824637766913352 0.3264971890334028 0.0 0.0
16.825 0.0 0.0 -0.8229169355100415 0.3308104870123007 -0.8229169355100415 0.3308104870123007 0.0 0.0
16.85 0.0 0.0 -0.8211735434232507 0.33511471565458906 -0.8211735434232507 0.33511471565458906 0.0 0.0
16.875 0.0 0.0 -0.8194076384489538 0.3394097569576661 -0.8194076384489538 0.3394097569576661 0.0 0.0
16.9 0.0 0.0 -0.817619269000328 0.3436954931708045 -0.817619269000328 0.3436954931708045 0.0 0.0
16.925 0.0 0.0 -0.8158084841064254 0.3479718067983808 -0.8158084841064254 0.3479718067983808 0.0 0.0
16.95 0.0 0.0 -0.8139753334108281 0.3522385806030973 -0.8139753334108281 0.3522385806030973 0.0 0.0
16.975 0.0 0.0 -0.8121198671702885 0.3564956976091946 -0.8121198671702885 0.3564956976091946 0.0 0.0
17.0 0.0 0.0 -0.8102421362533513 0.36074304110565897 -0.8102421362533513 0.36074304110565897 0.0 0.0
17.025 0.0 0.0 -0.8083421921389575 0.3649804946494238 -0.8083421921389575 0.3649804946494238 0.0 0.0
17.05 0.0 0.0 -0.8064200869150352 0.36920794206855917 -0.8064200869150352 0.36920794206855917 0.0 0.0
17.075 0.0 0.0 -0.8044758732770699 0.3734252674654583 -0.8044758732770699 0.3734252674654583 0.0 0.0
17.1 0.0 0.0 -0.8025096045266605 0.3776323552200158 -0.8025096045266605 0.3776323552200158 0.0 0.0
17.125 0.0 0.0 -0.8005213345700583 0.38182908999279536 -0.8005213345700583 0.38182908999279536 0.0 0.0
17.15 0.0 0.0 -0.7985111179166884 0.3860153567281928 -0.7985111179166884 0.3860153567281928 0.0 0.0
17.175 0.0 0.0 -0.7964790096776556 0.3901910406575916 -0.7964790096776556 0.3901910406575916 0.0 0.0
17.2 0.0 0.0 -0.7944250655642341 0.39435602730250713 -0.7944250655642341 0.39435602730250713 0.0 0.0
17.225 0.0 0.0 -0.7923493418863393 0.39851020247772634 -0.7923493418863393 0.39851020247772634 0.0 0.0
17.25 0.0 0.0 -0.7902518955509836 0.40265345229443966 -0.7902518955509836 0.40265345229443966 0.0 0.0
17.275 0.0 0.0 -0.788132784060719 0.4067856631633587 -0.788132784060719 0.4067856631633587 0.0 0.0
17.3 0.0 0.0 -0.7859920655120569 0.4109067217978354 -0.7859920655120569 0.4109067217978354 0.0 0.0
17.325 0.0 0.0 -0.7838297985938778 0.4150165152169663 -0.7838297985938778 0.4150165152169663 0.0 0.0
17.35 0.0 0.0 -0.7816460425858213 0.41911493074868844 -0.7816460425858213 0.41911493074868844 0.0 0.0
17.375 0.0 0.0 -0.7794408573566617 0.42320185603286936 -0.7794408573566617 0.42320185603286936 0.0 0.0
17.4 0.0 0.0 -0.7772143033626657 0.42727717902438855 -0.7772143033626657 0.42727717902438855 0.0 0.0
17.425 0.0 0.0 -0.7749664416459362 0.43134078799620734 -0.7749664416459362 0.43134078799620734 0.0 0.0
17.45 0.0 0.0 -0.7726973338327376 0.43539257154243255 -0.7726973338327376 0.43539257154243255 0.0 0.0
17.475 0.0 0.0 -0.7704070421318064 0.4394324185813722 -0.7704070421318064 0.4394324185813722 0.0 0.0
17.5 0.0 0.0 -0.768095629332647 0.44346021835857885 -0.768095629332647 0.44346021835857885 0.0 0.0
17.525 0.0 0.0 -0.7657631588038086 0.4474758604498865 -0.7657631588038086 0.4474758604498865 0.0 0.0
17.55 0.0 0.0 -0.763409694491149 0.45147923476443935 -0.763409694491149 0.45147923476443935 0.0 0.0
17.575 0.0 0.0 -0.7610353009160813 0.4554702315477081 -0.7610353009160813 0.4554702315477081 0.0 0.0
17.6 0.0 0.0 -0.7586400431738051 0.4594487413844994 -0.7586400431738051 0.4594487413844994 0.0 0.0
17.625 0.0 0.0 -0.7562239869315205 0.4634146552019572 -0.7562239869315205 0.4634146552019572 0.0 0.0
17.65 0.0 0.0 -0.7537871984266304 0.46736786427255034 -0.7537871984266304 0.46736786427255034 0.0 0.0
17.675 0.0 0.0 -0.7513297444649228 0.4713082602170549 -0.7513297444649228 0.4713082602170549 0.0 0.0
17.7 0.0 0.0 -0.748851692418739 0.4752357350075263 -0.748851692418739 0.4752357350075263 0.0 0.0
17.725 0.0 0.0 -0.7463531102251277 0.4791501809702588 -0.7463531102251277 0.4791501809702588 0.0 0.0
17.75 0.0 0.0 -0.7438340663839822 0.48305149078873877 -0.7438340663839822 0.48305149078873877 0.0 0.0
17.775 0.0 0.0 -0.7412946299561615 0.48693955750658724 -0.7412946299561615 0.48693955750658724 0.0 0.0
17.8 0.0 0.0 -0.7387348705615983 0.4908142745304909 -0.7387348705615983 0.4908142745304909 0.0 0.0
17.825 0.0 0.0 -0.7361548583773894 0.49467553563312505 -0.7361548583773894 0.49467553563312505 0.0 0.0
17.85 0.0 0.0 -0.733554664135872 0.49852323495606643 -0.733554664135872 0.49852323495606643 0.0 0.0
17.875 0.0 0.0 -0.7309343591226848 0.5023572670126943 -0.7309343591226848 0.5023572670126943 0.0 0.0
17.9 0.0 0.0 -0.7282940151748135 0.5061775266910827 -0.7282940151748135 0.5061775266910827 0.0 0.0
17.925 0.0 0.0 -0.725633704678621 0.5099839092568834 -0.725633704678621 0.5099839092568834 0.0 0.0
17.95 0.0 0.0 -0.7229535005678632 0.5137763103561956 -0.7229535005678632 0.5137763103561956 0.0 0.0
17.975 0.0 0.0 -0.7202534763216902 0.517554626018427 -0.7202534763216902 0.517554626018427 0.0 0.0
18.0 0.0 0.0 -0.7175337059626303 0.5213187526591451 -0.7175337059626303 0.5213187526591451 0.0 0.0
