! Created with skrf 2.1.0 (http://scikit-rf.org).
# GHz S RI R 50.0 
!freq ReS11 ImS11 ReS21 ImS21 ReS12 ImS12 ReS22 ImS22
8.0 0.0 0.0 -0.09270843029072065 -0.8820617937648041 -0.09270843029072065 -0.8820617937648041 0.0 0.0
8.025 0.0 0.0 -0.09750144837407444 -0.8831570711165414 -0.09732560311572626 -0.8815642846921111 0.0 0.0
8.05 0.0 0.0 -0.10230678233188568 -0.8842116832451872 -0.10194010771015899 -0.8810426070892341 0.0 0.0
8.075 0.0 0.0 -0.10712195493443542 -0.8852081366096848 -0.10655181756504396 -0.8804967752582282 0.0 0.0
8.1 0.0 0.0 -0.11194415732866794 -0.8861292496299518 -0.11116060624802614 -0.879926804163349 0.0 0.0
8.125 0.0 0.0 -0.11677028250223927 -0.8869583535604616 -0.1157663474068358 -0.8793327094306416 0.0 0.0
8.15 0.0 0.0 -0.12159696475057664 -0.887679490817701 -0.12036891477275219 -0.8787145073475134 0.0 0.0
8.175 0.0 0.0 -0.12642062468893187 -0.8882776079686271 -0.12496818216406615 -0.8780722148622869 0.0 0.0
8.2 0.0 0.0 -0.13123751922456678 -0.8887387405176547 -0.12956402348953902 -0.8774058495837348 0.0 0.0
8.225 0.0 0.0 -0.13604379578280398 -0.889050186623083 -0.13415631275185896 -0.876715429780598 0.0 0.0
8.25 0.0 0.0 -0.14083554996879377 -0.889200666935566 -0.13874492405109623 -0.8760009743810842 0.0 0.0
8.275 0.0 0.0 -0.14560888574853226 -0.8891804678842216 -0.14332973158815449 -0.8752625029723488 0.0 0.0
8.3 0.0 0.0 -0.15035997715172242 -0.8889815659404676 -0.14791060966821862 -0.8745000357999588 0.0 0.0
8.325 0.0 0.0 -0.15508513043885028 -0.888597730663153 -0.15248743270420193 -0.8737135937673368 0.0 0.0
8.35 0.0 0.0 -0.1597808456380728 -0.8880246046655677 -0.15706007522018922 -0.8729031984351884 0.0 0.0
8.375 0.0 0.0 -0.16444387634616586 -0.8872597590373502 -0.16162841185487617 -0.872068872020911 0.0 0.0
8.4 0.0 0.0 -0.16907128670289975 -0.88630272319162 -0.16619231736500592 -0.8712106373979845 0.0 0.0
8.425 0.0 0.0 -0.17366050448988501 -0.8851549885772882 -0.17075166662880367 -0.8703285180953451 0.0 0.0
8.45 0.0 0.0 -0.17820936937224113 -0.883819986184393 -0.1753063346494064 -0.8694225382967385 0.0 0.0
8.475 0.0 0.0 -0.18271617539250212 -0.8823030382616104 -0.17985619655828916 -0.8684927228400589 0.0 0.0
8.5 0.0 0.0 -0.18717970693817737 -0.8806112851447033 -0.18440112761868954 -0.8675390972166668 0.0 0.0
8.525 0.0 0.0 -0.19159926753377218 -0.8787535885480376 -0.18894100322902688 -0.86656168757069 0.0 0.0
8.55 0.0 0.0 -0.19597470095067857 -0.8767404130849781 -0.19347569892631764 -0.8655605206983081 0.0 0.0
8.575 0.0 0.0 -0.20030640427958482 -0.8745836881452735 -0.1980050903895888 -0.8645356240470164 0.0 0.0
8.6 0.0 0.0 -0.20459533276514694 -0.8722966525590046 -0.20252905344328553 -0.8634870257148743 0.0 0.0
8.625 0.0 0.0 -0.20884299635689896 -0.8698936847103844 -0.20704746406067548 -0.8624147544497349 0.0 0.0
8.65 0.0 0.0 -0.21305144807923362 -0.8673901209266269 -0.21156019836724857 -0.8613188396484567 0.0 0.0
8.675 0.0 0.0 -0.21722326446272466 -0.8648020650560003 -0.2160671326441147 -0.8601993113560972 0.0 0.0
8.7 0.0 0.0 -0.22136151840561816 -0.8621461921667055 -0.22056814333139368 -0.8590562002650903 0.0 0.0
8.725 0.0 0.0 -0.2254697449453045 -0.8594395492485143 -0.22506310703160404 -0.8578895377144042 0.0 0.0
8.75 0.0 0.0 -0.22955190051304547 -0.8566993556886816 -0.22955190051304547 -0.8566993556886816 0.0 0.0
8.775 0.0 0.0 -0.23361231632015447 -0.8539428061307675 -0.23403440071317683 -0.8554856868173643 0.0 0.0
8.8 0.0 0.0 -0.23765564657997246 -0.8511868781193493 -0.23851048474199102 -0.8542485643737974 0.0 0.0
8.825 0.0 0.0 -0.2416868123079195 -0.8484481466956878 -0.24298002988538345 -0.8529880222743175 0.0 0.0
8.85 0.0 0.0 -0.24571094146292313 -0.8457426078500305 -0.24744291360851592 -0.8517040950773231 0.0 0.0
8.875 0.0 0.0 -0.24973330619947495 -0.8430855124660839 -0.2518990135591769 -0.850396817982327 0.0 0.0
8.9 0.0 0.0 -0.2537592579927572 -0.8404912121222696 -0.25634820757113547 -0.8490662268289908 0.0 0.0
8.925 0.0 0.0 -0.2577941613823322 -0.83797301785176 -0.26079037366748986 -0.8477123580961436 0.0 0.0
8.95 0.0 0.0 -0.2618433270555397 -0.8355430727166544 -0.2652253900640129 -0.8463352489007802 0.0 0.0
8.975 0.0 0.0 -0.26591194496274484 -0.8332122388272538 -0.26965313517249 -0.8449349369970449 0.0 0.0
9.0 0.0 0.0 -0.2700050181255306 -0.8309899992396512 -0.27407348760405187 -0.843511460775196 0.0 0.0
9.025 0.0 0.0 -0.27412729776814837 -0.8288843749966596 -0.2784863261725037 -0.8420648592605532 0.0 0.0
9.05 0.0 0.0 -0.27828322037395825 -0.8269018574394356 -0.2828915298976472 -0.8405951721124277 0.0 0.0
9.075 0.0 0.0 -0.28247684724370303 -0.8250473558095285 -0.2872889780085969 -0.8391024396230351 0.0 0.0
9.1 0.0 0.0 -0.28671180711219096 -0.8233241600814282 -0.29167854994709136 -0.8375867027163908 0.0 0.0
9.125 0.0 0.0 -0.29099124236469903 -0.8217339189106591 -0.2960601253707989 -0.8360480029471873 0.0 0.0
9.15 0.0 0.0 -0.295317759383954 -0.820276632547684 -0.3004335841566155 -0.8344863824996566 0.0 0.0
9.175 0.0 0.0 -0.2996933835521453 -0.81895066054806 -0.30479880640395945 -0.8329018841864119 0.0 0.0
9.2 0.0 0.0 -0.30411951942876064 -0.8177527440986726 -0.309155672438058 -0.8312945514472746 0.0 0.0
9.225 0.0 0.0 -0.30859691662236893 -0.8166780427723258 -0.3135040628132277 -0.8296644283480841 0.0 0.0
9.25 0.0 0.0 -0.3131256418706289 -0.8157201855124036 -0.31784385831614975 -0.8280115595794884 0.0 0.0
9.275 0.0 0.0 -0.3177050578353125 -0.8148713356298988 -0.3221749399691389 -0.8263359904557196 0.0 0.0
9.3 0.0 0.0 -0.32233380910535786 -0.814122269561479 -0.32649718903340263 -0.824637766913352 0.0 0.0
9.325 0.0 0.0 -0.3270098158782155 -0.8134624690848998 -0.33081048701230037 -0.8229169355100416 0.0 0.0
9.35 0.0 0.0 -0.33173027575534975 -0.8128802266134147 -0.3351147156545893 -0.8211735434232506 0.0 0.0
9.375 0.0 0.0 -0.33649167403938934 -0.8123627630915201 -0.33940975695766634 -0.8194076384489537 0.0 0.0
9.4 0.0 0.0 -0.3412898028559896 -0.8118963578894084 -0.34369549317080456 -0.817619269000328 0.0 0.0
9.425 0.0 0.0 -0.3461197893415315 -0.811466489943414 -0.347971806798381 -0.8158084841064253 0.0 0.0
9.45 0.0 0.0 -0.3509761330374885 -0.8110579892165295 -0.3522385806030976 -0.813975333410828 0.0 0.0
9.475 0.0 0.0 -0.35585275251359355 -0.8106551973604169 -0.3564956976091946 -0.8121198671702885 0.0 0.0
9.5 0.0 0.0 -0.36074304110565936 -0.8102421362533511 -0.36074304110565936 -0.8102421362533511 0.0 0.0
9.525 0.0 0.0 -0.3656399315017943 -0.8098026828737684 -0.364980494649424 -0.8083421921389574 0.0 0.0
9.55 0.0 0.0 -0.3705359687455704 -0.8093207487542704 -0.3692079420685592 -0.8064200869150352 0.0 0.0
9.575 0.0 0.0 -0.37542339105004324 -0.8087804620547234 -0.37342526746545873 -0.8044758732770697 0.0 0.0
9.6 0.0 0.0 -0.3802942176369748 -0.808166350104759 -0.3776323552200162 -0.8025096045266603 0.0 0.0
9.625 0.0 0.0 -0.3851403426363862 -0.8074635201049424 -0.3818290899927954 -0.8005213345700583 0.0 0.0
9.65 0.0 0.0 -0.3899536339085177 -0.8066578355513989 -0.3860153567281932 -0.7985111179166882 0.0 0.0
9.675 0.0 0.0 -0.3947260354895457 -0.8057360858692575 -0.39019104065759197 -0.7964790096776555 0.0 0.0
9.7 0.0 0.0 -0.3994496722202765 -0.8046861467132633 -0.3943560273025072 -0.7944250655642341 0.0 0.0
9.725 0.0 0.0 -0.40411695499951406 -0.8034971284251442 -0.3985102024777267 -0.792349341886339 0.0 0.0
9.75 0.0 0.0 -0.40872068501646047 -0.802159510230567 -0.40265345229443933 -0.7902518955509837 0.0 0.0
9.775 0.0 0.0 -0.41325415526410975 -0.8006652579153659 -0.40678566316335835 -0.7881327840607191 0.0 0.0
9.8 0.0 0.0 -0.41771124762179307 -0.7990079229402406 -0.4109067217978351 -0.7859920655120571 0.0 0.0
9.825 0.0 0.0 -0.42208652382227924 -0.7971827212318171 -0.41501651521696636 -0.7838297985938777 0.0 0.0
9.85 0.0 0.0 -0.4263753086879938 -0.795186590219851 -0.4191149307486881 -0.7816460425858214 0.0 0.0
9.875 0.0 0.0 -0.4305737641314175 -0.7930182230670819 -0.42320185603286936 -0.7794408573566617 0.0 0.0
9.9 0.0 0.0 -0.4346789525642045 -0.7906780794494946 -0.4272771790243886 -0.7772143033626657 0.0 0.0
9.925 0.0 0.0 -0.43868888854435345 -0.7881683726784908 -0.431340787996207 -0.7749664416459364 0.0 0.0
9.95 0.0 0.0 -0.4426025777055285 -0.7854930333996948 -0.43539257154243255 -0.7726973338327376 0.0 0.0
9.975 0.0 0.0 -0.4464200422510546 -0.78265765054224 -0.4394324185813723 -0.7704070421318064 0.0 0.0
10.0 0.0 0.0 -0.4501423325498467 -0.7796693906139006 -0.4434602183585785 -0.7680956293326471 0.0 0.0
10.025 0.0 0.0 -0.45377152463468634 -0.7765368968286338 -0.4474758604498865 -0.7657631588038086 0.0 0.0
10.05 0.0 0.0 -0.4573107036667068 -0.7732701699024651 -0.45147923476443946 -0.763409694491149 0.0 0.0
10.075 0.0 0.0 -0.46076393368575935 -0.7698804326514804 -0.4554702315477078 -0.7610353009160815 0.0 0.0
10.1 0.0 0.0 -0.46413621420697976 -0.766379980764463 -0.45944874138449954 -0.758640043173805 0.0 0.0
10.125 0.0 0.0 -0.4674334244427851 -0.7627820222973459 -0.46341465520195757 -0.7562239869315203 0.0 0.0
10.15 0.0 0.0 -0.4706622561211421 -0.7591005085446348 -0.4673678642725504 -0.7537871984266303 0.0 0.0
10.175 0.0 0.0 -0.47383013603103247 -0.7553499589844291 -0.471308260217055 -0.7513297444649227 0.0 0.0
10.2 0.0 0.0 -0.4769451395518141 -0.7515452829712203 -0.4752357350075267 -0.7488516924187387 0.0 0.0
10.225 0.0 0.0 -0.4800158965133737 -0.7477016007690852 -0.4791501809702589 -0.7463531102251276 0.0 0.0
10.25 0.0 0.0 -0.48305149078873905 -0.7438340663839819 -0.48305149078873905 -0.7438340663839819 0.0 0.0
10.275 0.0 0.0 -0.48606135504172593 -0.7399576944758117 -0.48693955750658763 -0.7412946299561612 0.0 0.0
10.3 0.0 0.0 -0.4890551620420569 -0.736087193417958 -0.49081427453049103 -0.7387348705615981 0.0 0.0
10.325 0.0 0.0 -0.49204271392294646 -0.7322368063340249 -0.49467553563312533 -0.7361548583773891 0.0 0.0
10.35 0.0 0.0 -0.4950338306959765 -0.7284201616883169 -0.4985232349560668 -0.7335546641358717 0.0 0.0
10.375 0.0 0.0 -0.498038239260275 -0.7246501347478278 -0.5023572670126943 -0.7309343591226848 0.0 0.0
10.4 0.0 0.0 -0.5010654640528149 -0.7209387209779582 -0.5061775266910831 -0.7282940151748134 0.0 0.0
10.425 0.0 0.0 -0.5041247203893666 -0.7172969221896528 -0.5099839092568839 -0.7256337046786208 0.0 0.0
10.45 0.0 0.0 -0.5072248114462828 -0.7137346460286104 -0.5137763103561955 -0.7229535005678634 0.0 0.0
10.475 0.0 0.0 -0.5103740297363554 -0.7102606191927497 -0.5175546260184267 -0.7202534763216905 0.0 0.0
10.5 0.0 0.0 -0.513580063841354 -0.7068823145856702 -0.5213187526591452 -0.7175337059626303 0.0 0.0
10.525 0.0 0.0 -0.516849911082604 -0.7036058924633694 -0.5250685870829165 -0.7147942640545621 0.0 0.0
10.55 0.0 0.0 -0.5201897967412489 -0.7004361555093995 -0.5288040264861367 -0.712035225700669 0.0 0.0
10.575 0.0 0.0 -0.5236051003828928 -0.6973765176789778 -0.5325249684598473 -0.7092566665413811 0.0 0.0
10.6 0.0 0.0 -0.5271002897974494 -0.6944289865830574 -0.5362313109925444 -0.7064586627523018 0.0 0.0
10.625 0.0 0.0 -0.530678863033488 -0.6915941591357645 -0.5399229524729754 -0.7036412910421179 0.0 0.0
10.65 0.0 0.0 -0.5343432989856822 -0.6888712301587466 -0.5435997916929243 -0.7008046286504982 0.0 0.0
10.675 0.0 0.0 -0.5380950169817499 -0.6862580136191105 -0.5472617278499862 -0.6979487533459753 0.0 0.0
10.7 0.0 0.0 -0.5419343458085106 -0.6837509761686568 -0.5509086605503319 -0.6950737434238129 0.0 0.0
10.725 0.0 0.0 -0.5458605026118152 -0.6813452826457718 -0.5545404898114593 -0.6921796777038605 0.0 0.0
10.75 0.0 0.0 -0.5498715820981818 -0.679034853192475 -0.558157116064934 -0.689266635528392 0.0 0.0
10.775 0.0 0.0 -0.5539645564528528 -0.6768124316229633 -0.561758440159121 -0.6863346967599296 0.0 0.0
10.8 0.0 0.0 -0.5581352863654879 -0.6746696646522783 -0.5653443633619009 -0.6833839417790561 0.0 0.0
10.825 0.0 0.0 -0.5623785435168948 -0.6725971915509474 -0.5689147873633773 -0.6804144514822099 0.0 0.0
10.85 0.0 0.0 -0.5666880448244173 -0.6705847437310783 -0.572469614278573 -0.6774263072794672 0.0 0.0
10.875 0.0 0.0 -0.5710564986668949 -0.6686212536898798 -0.576008746650112 -0.6744195910923113 0.0 0.0
10.9 0.0 0.0 -0.5754756632102288 -0.6666949726376478 -0.5795320874508931 -0.6713943853513847 0.0 0.0
10.925 0.0 0.0 -0.5799364168302719 -0.6647935960198295 -0.5830395400867483 -0.6683507729942313 0.0 0.0
10.95 0.0 0.0 -0.5844288404808587 -0.6629043960090383 -0.5865310083990916 -0.6652888374630211 0.0 0.0
10.975 0.0 0.0 -0.5889423116823655 -0.6610143598963555 -0.5900063966675552 -0.662208662702264 0.0 0.0
11.0 0.0 0.0 -0.593465609612615 -0.6591103331565062 -0.593465609612615 -0.6591103331565062 0.0 0.0
11.025 0.0 0.0 -0.5979870305709157 -0.657179165804249 -0.5969085523982001 -0.6559939337680177 0.0 0.0
11.05 0.0 0.0 -0.6024945128625386 -0.655207860506056 -0.6003351306342948 -0.6528595499744624 0.0 0.0
11.075 0.0 0.0 -0.6069757699210991 -0.653183720769015 -0.6037452503795263 -0.6497072677065545 0.0 0.0
11.1 0.0 0.0 -0.6114184302573563 -0.6510944974052515 -0.6071388181437388 -0.646537173385705 0.0 0.0
11.125 0.0 0.0 -0.6158101826027275 -0.6489285313723947 -0.6105157408905577 -0.6433493539216517 0.0 0.0
11.15 0.0 0.0 -0.6201389244127644 -0.6466748910257036 -0.6138759260399406 -0.6401438967100747 0.0 0.0
11.175 0.0 0.0 -0.624392911718437 -0.6443235017915905 -0.6172192814707138 -0.6369208896302029 0.0 0.0
11.2 0.0 0.0 -0.6285609081695477 -0.6418652662905191 -0.6205457155230991 -0.6336804210424039 0.0 0.0
11.225 0.0 0.0 -0.6326323310124824 -0.6392921730032716 -0.6238551370012272 -0.6304225797857603 0.0 0.0
11.25 0.0 0.0 -0.6365973916902534 -0.6365973916902535 -0.6271474551756362 -0.6271474551756363 0.0 0.0
11.275 0.0 0.0 -0.6404472287514291 -0.6337753539388755 -0.6304225797857602 -0.6238551370012273 0.0 0.0
11.3 0.0 0.0 -0.6441740308092475 -0.6308218174270759 -0.6336804210424035 -0.6205457155230996 0.0 0.0
11.325 0.0 0.0 -0.6477711474042455 -0.6277339127476923 -0.6369208896302028 -0.6172192814707139 0.0 0.0
11.35 0.0 0.0 -0.6512331857920755 -0.6245101719326591 -0.6401438967100745 -0.6138759260399407 0.0 0.0
11.375 0.0 0.0 -0.6545560918996683 -0.6211505381401536 -0.6433493539216516 -0.6105157408905578 0.0 0.0
11.4 0.0 0.0 -0.6577372139621774 -0.6176563563127382 -0.6465371733857053 -0.6071388181437387 0.0 0.0
11.425 0.0 0.0 -0.6607753476628866 -0.614030344969963 -0.6497072677065546 -0.6037452503795261 0.0 0.0
11.45 0.0 0.0 -0.6636707619395088 -0.6102765496540598 -0.6528595499744623 -0.6003351306342949 0.0 0.0
11.475 0.0 0.0 -0.6664252049827442 -0.6064002788912946 -0.655993933768018 -0.5969085523982 0.0 0.0
11.5 0.0 0.0 -0.6690418903254864 -0.6024080238537396 -0.6591103331565064 -0.5934656096126147 0.0 0.0
11.525 0.0 0.0 -0.6715254632922385 -0.5983073631969411 -0.6622086627022641 -0.590006396667555 0.0 0.0
11.55 0.0 0.0 -0.6738819484368083 -0.594106854799822 -0.6652888374630214 -0.5865310083990913 0.0 0.0
11.575 0.0 0.0 -0.6761186789316743 -0.5898159163373714 -0.6683507729942314 -0.5830395400867481 0.0 0.0
11.6 0.0 0.0 -0.678244209175076 -0.585444696769389 -0.671394385351385 -0.579532087450893 0.0 0.0
11.625 0.0 0.0 -0.6802682121440389 -0.5810039409269877 -0.6744195910923113 -0.5760087466501121 0.0 0.0
11.65 0.0 0.0 -0.682201363237148 -0.5765048494220527 -0.6774263072794674 -0.5724696142785728 0.0 0.0
11.675 0.0 0.0 -0.6840552125159408 -0.5719589360948361 -0.68041445148221 -0.5689147873633772 0.0 0.0
11.7 0.0 0.0 -0.6858420473664897 -0.5673778851546231 -0.683383941779056 -0.565344363361901 0.0 0.0
11.725 0.0 0.0 -0.6875747476633036 -0.5627734100629974 -0.6863346967599295 -0.5617584401591211 0.0 0.0
11.75 0.0 0.0 -0.6892666355283918 -0.5581571160649341 -0.6892666355283918 -0.5581571160649341 0.0 0.0
11.775 0.0 0.0 -0.6909313217432164 -0.553540368097151 -0.6921796777038604 -0.5545404898114594 0.0 0.0
11.8 0.0 0.0 -0.6925825507957883 -0.5489341656037708 -0.6950737434238128 -0.5509086605503322 0.0 0.0
11.825 0.0 0.0 -0.6942340464360212 -0.5443490255745658 -0.6979487533459752 -0.5472617278499863 0.0 0.0
11.85 0.0 0.0 -0.695899359476997 -0.5397948748988564 -0.7008046286504981 -0.5435997916929245 0.0 0.0
11.875 0.0 0.0 -0.6975917194258237 -0.5352809529060817 -0.7036412910421178 -0.5399229524729756 0.0 0.0
11.9 0.0 0.0 -0.6993238913630122 -0.5308157247488914 -0.7064586627523018 -0.5362313109925444 0.0 0.0
11.925 0.0 0.0 -0.7011080393212261 -0.5264068060820946 -0.709256666541381 -0.5325249684598475 0.0 0.0
11.95 0.0 0.0 -0.7029555972495962 -0.5220608993055946 -0.7120352257006691 -0.5288040264861364 0.0 0.0
11.975 0.0 0.0 -0.7048771484944099 -0.5177837414749367 -0.714794264054562 -0.5250685870829166 0.0 0.0
12.0 0.0 0.0 -0.7068823145856701 -0.5135800638413541 -0.7175337059626302 -0.5213187526591453 0.0 0.0
12.025 0.0 0.0 -0.7089796539952141 -0.5094535628652495 -0.7202534763216903 -0.5175546260184268 0.0 0.0
12.05 0.0 0.0 -0.7111765714280739 -0.5054068824524447 -0.7229535005678631 -0.5137763103561959 0.0 0.0
12.075 0.0 0.0 -0.7134792381253531 -0.5014416070901003 -0.7256337046786207 -0.509983909256884 0.0 0.0
12.1 0.0 0.0 -0.7158925235936652 -0.4975582655066849 -0.7282940151748133 -0.5061775266910832 0.0 0.0
12.125 0.0 0.0 -0.7184199391315051 -0.49375634444481337 -0.7309343591226847 -0.5023572670126945 0.0 0.0
12.15 0.0 0.0 -0.7210635934940112 -0.4900343121137851 -0.7335546641358719 -0.4985232349560666 0.0 0.0
12.175 0.0 0.0 -0.7238241610207438 -0.4863896508763867 -0.736154858377389 -0.49467553563312555 0.0 0.0
12.2 0.0 0.0 -0.72670086254191 -0.4828188987180736 -0.7387348705615983 -0.4908142745304908 0.0 0.0
12.225 0.0 0.0 -0.7296914593718601 -0.47931769904212296 -0.7412946299561616 -0.48693955750658713 0.0 0.0
12.25 0.0 0.0 -0.7327922606893735 -0.4758808583280491 -0.7438340663839819 -0.48305149078873927 0.0 0.0
12.275 0.0 0.0 -0.735998144586768 -0.4725024111792756 -0.7463531102251277 -0.4791501809702587 0.0 0.0
12.3 0.0 0.0 -0.7393025930389597 -0.4691756922669514 -0.7488516924187391 -0.47523573500752614 0.0 0.0
12.325 0.0 0.0 -0.7426977409944249 -0.46589341464779677 -0.7513297444649226 -0.47130826021705513 0.0 0.0
12.35 0.0 0.0 -0.7461744397182944 -0.4626477538937009 -0.7537871984266306 -0.4673678642725502 0.0 0.0
12.375 0.0 0.0 -0.7497223344203011 -0.4594304374188698 -0.7562239869315206 -0.46341465520195707 0.0 0.0
12.4 0.0 0.0 -0.753329956074737 -0.45623283832709954 -0.7586400431738048 -0.45944874138449965 0.0 0.0
12.425 0.0 0.0 -0.756984827185053 -0.4530460730284794 -0.7610353009160814 -0.455470231547708 0.0 0.0
12.45 0.0 0.0 -0.7606735810627944 -0.4498611017936683 -0.7634096944911491 -0.45147923476443924 0.0 0.0
12.475 0.0 0.0 -0.7643820939812966 -0.44666883132778074 -0.7657631588038085 -0.44747586044988674 0.0 0.0
12.5 0.0 0.0 -0.7680956293326471 -0.4434602183585787 -0.7680956293326471 -0.4434602183585787 0.0 0.0
12.525 0.0 0.0 -0.7717989926671229 -0.4402263731493199 -0.7704070421318066 -0.43943241858137205 0.0 0.0
12.55 0.0 0.0 -0.7754766962344128 -0.4369586617699107 -0.7726973338327375 -0.4353925715424327 0.0 0.0
12.575 0.0 0.0 -0.7791131313834151 -0.43364880589584814 -0.7749664416459363 -0.4313407879962072 0.0 0.0
12.6 0.0 0.0 -0.7826927469214504 -0.4302889788576057 -0.7772143033626658 -0.4272771790243884 0.0 0.0
12.625 0.0 0.0 -0.7862002312940785 -0.42687189663817754 -0.7794408573566616 -0.42320185603286953 0.0 0.0
12.65 0.0 0.0 -0.7896206962335368 -0.4233909025175086 -0.7816460425858213 -0.4191149307486883 0.0 0.0
12.675 0.0 0.0 -0.7929398593471025 -0.4198400440927509 -0.7838297985938779 -0.41501651521696614 0.0 0.0
12.7 0.0 0.0 -0.7961442229858194 -0.41621414146498137 -0.7859920655120568 -0.4109067217978356 0.0 0.0
12.725 0.0 0.0 -0.7992212466573139 -0.412508845477356 -0.7881327840607191 -0.4067856631633585 0.0 0.0
12.75 0.0 0.0 -0.802159510230567 -0.40872068501646064 -0.7902518955509837 -0.4026534522944395 0.0 0.0
12.775 0.0 0.0 -0.8049488652303292 -0.40484710254630424 -0.7923493418863388 -0.3985102024777272 0.0 0.0
12.8 0.0 0.0 -0.8075805716367066 -0.4008864772301038 -0.7944250655642338 -0.39435602730250774 0.0 0.0
12.825 0.0 0.0 -0.8100474177913137 -0.3968381352044753 -0.7964790096776554 -0.39019104065759214 0.0 0.0
12.85 0.0 0.0 -0.8123438212624178 -0.3927023467984734 -0.7985111179166882 -0.3860153567281933 0.0 0.0
12.875 0.0 0.0 -0.8144659088323206 -0.3884803107297868 -0.8005213345700584 -0.3818290899927952 0.0 0.0
12.9 0.0 0.0 -0.8164115741328922 -0.38417412555520747 -0.8025096045266602 -0.37763235522001637 0.0 0.0
12.925 0.0 0.0 -0.8181805118596137 -0.3797867488947987 -0.8044758732770696 -0.3734252674654589 0.0 0.0
12.95 0.0 0.0 -0.8197742279287505 -0.37532194518153783 -0.8064200869150352 -0.369207942068559 0.0 0.0
12.975 0.0 0.0 -0.8211960253932898 -0.3707842229032887 -0.8083421921389572 -0.36498049464942434 0.0 0.0
13.0 0.0 0.0 -0.8224509663871156 -0.36617876249527037 -0.8102421362533512 -0.3607430411056592 0.0 0.0
13.025 0.0 0.0 -0.8235458108097242 -0.3615113362030103 -0.8121198671702886 -0.3564956976091944 0.0 0.0
13.05 0.0 0.0 -0.8244889328822954 -0.3567882213635136 -0.813975333410828 -0.35223858060309754 0.0 0.0
13.075 0.0 0.0 -0.8252902170879195 -0.3520161086430281 -0.8158084841064253 -0.347971806798381 0.0 0.0
13.1 0.0 0.0 -0.8259609353438382 -0.3472020068214726 -0.8176192690003281 -0.3436954931708044 0.0 0.0
13.125 0.0 0.0 -0.8265136075332994 -0.3423531457262058 -0.8194076384489538 -0.33940975695766595 0.0 0.0
13.15 0.0 0.0 -0.826961847743111 -0.33747687889256445 -0.8211735434232506 -0.3351147156545892 0.0 0.0
13.175 0.0 0.0 -0.8273201987068703 -0.3325805874680451 -0.8229169355100415 -0.3308104870123005 0.0 0.0
13.2 0.0 0.0 -0.8276039570424053 -0.32767158678491415 -0.824637766913352 -0.32649718903340263 0.0 0.0
13.225 0.0 0.0 -0.8278289918969881 -0.32275703690703117 -0.8263359904557196 -0.3221749399691388 0.0 0.0
13.25 0.0 0.0 -0.8280115595794884 -0.3178438583161499 -0.8280115595794884 -0.3178438583161499 0.0 0.0
13.275 0.0 0.0 -0.828168116670893 -0.31293865374661467 -0.8296644283480841 -0.3135040628132276 0.0 0.0
13.3 0.0 0.0 -0.8283151339712507 -0.30804763701106025 -0.8312945514472746 -0.30915567243805814 0.0 0.0
13.325 0.0 0.0 -0.8284689134709139 -0.3031765694891911 -0.8329018841864118 -0.3047988064039596 0.0 0.0
13.35 0.0 0.0 -0.8286454103364669 -0.2983307047822515 -0.8344863824996566 -0.3004335841566154 0.0 0.0
13.375 0.0 0.0 -0.8288600616866652 -0.29351474187218846 -0.8360480029471873 -0.29606012537079907 0.0 0.0
13.4 0.0 0.0 -0.8291276237105386 -0.2887327869707776 -0.8375867027163907 -0.2916785499470915 0.0 0.0
13.425 0.0 0.0 -0.8294620184573757 -0.28398832410333713 -0.8391024396230351 -0.2872889780085969 0.0 0.0
13.45 0.0 0.0 -0.8298761914144769 -0.27928419434637797 -0.8405951721124276 -0.28289152989764743 0.0 0.0
13.475 0.0 0.0 -0.8303819807899547 -0.27462258353009766 -0.8420648592605531 -0.27848632617250385 0.0 0.0
13.5 0.0 0.0 -0.8309899992396512 -0.27000501812553057 -0.843511460775196 -0.2740734876040518 0.0 0.0
13.525 0.0 0.0 -0.8317095286230592 -0.26543236896218725 -0.8449349369970448 -0.26965313517249034 0.0 0.0
13.55 0.0 0.0 -0.8325484282449822 -0.26090486236423277 -0.84633524890078 -0.2652253900640134 0.0 0.0
13.575 0.0 0.0 -0.8335130569379449 -0.25642209825013 -0.8477123580961435 -0.26079037366749025 0.0 0.0
13.6 0.0 0.0 -0.834608209264025 -0.2519830747102363 -0.8490662268289908 -0.2563482075711356 0.0 0.0
13.625 0.0 0.0 -0.835837066061283 -0.24758621855686339 -0.850396817982327 -0.25189901355917665 0.0 0.0
13.65 0.0 0.0 -0.8372011595256756 -0.2432294213293106 -0.851704095077323 -0.24744291360851628 0.0 0.0
13.675 0.0 0.0 -0.8387003529995519 -0.2389100802299137 -0.8529880222743176 -0.24298002988538325 0.0 0.0
13.7 0.0 0.0 -0.8403328356270735 -0.23462514346389077 -0.8542485643737974 -0.23851048474199077 0.0 0.0
13.725 0.0 0.0 -0.8420951320292401 -0.23037115945344938 -0.8554856868173643 -0.23403440071317677 0.0 0.0
13.75 0.0 0.0 -0.8439821271403896 -0.22614432939356835 -0.8566993556886816 -0.22955190051304522 0.0 0.0
13.775 0.0 0.0 -0.8459871063279237 -0.22194056261148107 -0.8578895377144042 -0.2250631070316038 0.0 0.0
13.8 0.0 0.0 -0.8481018108817251 -0.21775553418326993 -0.8590562002650903 -0.22056814333139366 0.0 0.0
13.825 0.0 0.0 -0.8503165089039811 -0.21358474424862672 -0.8601993113560972 -0.21606713264411448 0.0 0.0
13.85 0.0 0.0 -0.8526200815495208 -0.20942357844876303 -0.8613188396484567 -0.21156019836724835 0.0 0.0
13.875 0.0 0.0 -0.855000124457988 -0.20526736889321864 -0.8624147544497349 -0.20704746406067545 0.0 0.0
13.9 0.0 0.0 -0.8574430640802121 -0.20111145503999495 -0.8634870257148743 -0.2025290534432857 0.0 0.0
13.925 0.0 0.0 -0.859934288431539 -0.19695124385150126 -0.8645356240470163 -0.19800509038958894 0.0 0.0
13.95 0.0 0.0 -0.8624582916058219 -0.19278226856813335 -0.865560520698308 -0.193475698926318 0.0 0.0
13.975 0.0 0.0 -0.8649988311581278 -0.18860024542409778 -0.86656168757069 -0.18894100322902707 0.0 0.0
14.0 0.0 0.0 -0.8675390972166667 -0.18440112761868968 -0.8675390972166668 -0.1844011276186897 0.0 0.0
14.025 0.0 0.0 -0.8700618919212896 -0.1801811558530365 -0.8684927228400589 -0.1798561965582895 0.0 0.0
14.05 0.0 0.0 -0.8725498175150127 -0.17593690474971124 -0.8694225382967384 -0.17530633464940656 0.0 0.0
14.075 0.0 0.0 -0.874985471145539 -0.1716653244927021 -0.870328518095345 -0.17075166662880387 0.0 0.0
14.1 0.0 0.0 -0.8773516441758414 -0.16736377705977593 -0.8712106373979844 -0.1661923173650063 0.0 0.0
14.125 0.0 0.0 -0.8796315235672532 -0.16303006646962542 -0.8720688720209109 -0.16162841185487634 0.0 0.0
14.15 0.0 0.0 -0.8818088926960782 -0.15866246253302174 -0.8729031984351884 -0.15706007522018936 0.0 0.0
14.175 0.0 0.0 -0.8838683288060116 -0.15425971768052063 -0.8737135937673368 -0.1524874327042023 0.0 0.0
14.2 0.0 0.0 -0.8857953941932631 -0.14982107653840748 -0.8745000357999588 -0.14791060966821876 0.0 0.0
14.225 0.0 0.0 -0.8875768181774667 -0.1453462780379884 -0.8752625029723488 -0.14332973158815468 0.0 0.0
14.25 0.0 0.0 -0.8892006669355659 -0.14083554996879452 -0.876000974381084 -0.13874492405109695 0.0 0.0
14.275 0.0 0.0 -0.8906564983719589 -0.13628959602087395 -0.8767154297805979 -0.13415631275185952 0.0 0.0
14.3 0.0 0.0 -0.8919354993676623 -0.13170957550152185 -0.8774058495837347 -0.12956402348953938 0.0 0.0
14.325 0.0 0.0 -0.8930306029927373 -0.12709707605357434 -0.8780722148622868 -0.1249681821640665 0.0 0.0
14.35 0.0 0.0 -0.8939365835753805 -0.12245407984151511 -0.8787145073475136 -0.12036891477275197 0.0 0.0
14.375 0.0 0.0 -0.8946501278907973 -0.11778292380370617 -0.8793327094306417 -0.11576634740683539 0.0 0.0
14.4 0.0 0.0 -0.8951698811535651 -0.11308625468980625 -0.879926804163349 -0.11116060624802608 0.0 0.0
14.425 0.0 0.0 -0.8954964669566933 -0.10836697970793518 -0.8804967752582282 -0.10655181756504373 0.0 0.0
14.45 0.0 0.0 -0.895632480785424 -0.10362821369288838 -0.8810426070892341 -0.10194010771015856 0.0 0.0
14.475 0.0 0.0 -0.8955824572291936 -0.09887322377191964 -0.8815642846921111 -0.09732560311572624 0.0 0.0
14.5 0.0 0.0 -0.8953528115059387 -0.0941053725463049 -0.8820617937648042 -0.09270843029072041 0.0 0.0
14.525 0.0 0.0 -0.8949517563840893 -0.08932806082394096 -0.8825351206678509 -0.08808871581726684 0.0 0.0
14.55 0.0 0.0 -0.8943891960250809 -0.08454467093043268 -0.882984252424755 -0.08346658634717184 0.0 0.0
14.575 0.0 0.0 -0.8936765986605413 -0.07975851159425784 -0.8834091767223425 -0.07884216859844888 0.0 0.0
14.6 0.0 0.0 -0.8928268503529189 -0.0749727653472427 -0.8838098819110993 -0.07421558935184695 0.0 0.0
14.625 0.0 0.0 -0.89185409235828 -0.07019043930711766 -0.8841863570054901 -0.06958697544737362 0.0 0.0
14.65 0.0 0.0 -0.8907735448099847 -0.06541432011739477 -0.88453859168426 -0.06495645378081637 0.0 0.0
14.675 0.0 0.0 -0.8896013195696001 -0.06064693371467327 -0.8848665762907174 -0.0603241513002662 0.0 0.0
14.7 0.0 0.0 -0.8883542251471778 -0.05589051047850874 -0.8851703018329985 -0.05569019500263601 0.0 0.0
14.725 0.0 0.0 -0.8870495665800531 -0.05114695619809744 -0.8854497599843143 -0.05105471193017772 0.0 0.0
14.75 0.0 0.0 -0.8857049430831784 -0.04641782916700177 -0.8857049430831784 -0.04641782916700177 0.0 0.0
14.775 0.0 0.0 -0.884338046152259 -0.04170432359555088 -0.8859358441336171 -0.04177967383559179 0.0 0.0
14.8 0.0 0.0 -0.8829664606227138 -0.03700725941361526 -0.8861424568053619 -0.03714037309331836 0.0 0.0
14.825 0.0 0.0 -0.8816074709729356 -0.032327078426845415 -0.8863247754340213 -0.03250005412895526 0.0 0.0
14.85 0.0 0.0 -0.8802778749201394 -0.027663846689316426 -0.8864827950212386 -0.027858844159191307 0.0 0.0
14.875 0.0 0.0 -0.8789938061019881 -0.023017262866388003 -0.8866165112348267 -0.023216870425141554 0.0 0.0
14.9 0.0 0.0 -0.8777705673774355 -0.018386672284345415 -0.8867259204088882 -0.018574260188861172 0.0 0.0
14.925 0.0 0.0 -0.8766224760252097 -0.013771086298343766 -0.8868110195439152 -0.013931140729855386 0.0 0.0
14.95 0.0 0.0 -0.8755627218762888 -0.009169206557134647 -0.886871806306872 -0.00928763934158883 0.0 0.0
14.975 0.0 0.0 -0.8746032391943174 -0.004579453701282321 -0.8869082790312588 -0.004643883327998108 0.0 0.0
15.0 0.0 0.0 -0.8737545929202796 -4.95029063318842e-16 -0.8869204367171575 -5.024882233339989e-16 0.0 0.0
15.025 0.0 0.0 -0.8730258797282482 0.004571194590954394 -0.8869082790312588 0.004643883327997498 0.0 0.0
15.05 0.0 0.0 -0.8724246441992829 0.00913634348325801 -0.886871806306872 0.009287639341589006 0.0 0.0
15.075 0.0 0.0 -0.8719568103104984 0.013697792164376279 -0.8868110195439152 0.013931140729855167 0.0 0.0
15.1 0.0 0.0 -0.8716266283542953 0.018257975108167766 -0.8867259204088882 0.01857426018886135 0.0 0.0
15.125 0.0 0.0 -0.8714366373457068 0.02281937143805108 -0.8866165112348267 0.023216870425141728 0.0 0.0
15.15 0.0 0.0 -0.8713876429394936 0.027384459893905325 -0.8864827950212386 0.02785884415919109 0.0 0.0
15.175 0.0 0.0 -0.8714787108577949 0.03195567365387162 -0.8863247754340213 0.03250005412895543 0.0 0.0
15.2 0.0 0.0 -0.8717071758179149 0.0365353555620364 -0.8861424568053619 0.03714037309331854 0.0 0.0
15.225 0.0 0.0 -0.8720686659418133 0.041125714312777395 -0.8859358441336173 0.04177967383559157 0.0 0.0
15.25 0.0 0.0 -0.8725571426176508 0.0457287821421471 -0.8857049430831784 0.04641782916700194 0.0 0.0
15.275 0.0 0.0 -0.8731649557629374 0.05034637457555245 -0.8854497599843143 0.0510547119301779 0.0 0.0
15.3 0.0 0.0 -0.8738829144026099 0.05498005277828987 -0.8851703018329985 0.0556901950026358 0.0 0.0
15.325 0.0 0.0 -0.8747003724185298 0.059631089050016226 -0.8848665762907174 0.06032415130026638 0.0 0.0
15.35 0.0 0.0 -0.8756053292452599 0.06430043599461016 -0.88453859168426 0.06495645378081653 0.0 0.0
15.375 0.0 0.0 -0.8765845451775729 0.06898869988155674 -0.8841863570054901 0.0695869754473734 0.0 0.0
15.4 0.0 0.0 -0.8776236708164001 0.07369611869232556 -0.8838098819110993 0.07421558935184713 0.0 0.0
15.425 0.0 0.0 -0.8787073900118495 0.07842254531366721 -0.8834091767223425 0.07884216859844904 0.0 0.0
15.45 0.0 0.0 -0.879819575466211 0.08316743629789743 -0.882984252424755 0.08346658634717162 0.0 0.0
15.475 0.0 0.0 -0.8809434559399609 0.08792984655687389 -0.8825351206678509 0.08808871581726702 0.0 0.0
15.5 0.0 0.0 -0.882061793764804 0.09270843029072058 -0.8820617937648041 0.0927084302907206 0.0 0.0
15.525 0.0 0.0 -0.8831570711165416 0.09750144837407423 -0.8815642846921111 0.09732560311572602 0.0 0.0
15.55 0.0 0.0 -0.8842116832451872 0.10230678233188543 -0.8810426070892341 0.10194010771015874 0.0 0.0
15.575 0.0 0.0 -0.8852081366096848 0.10712195493443537 -0.8804967752582282 0.10655181756504391 0.0 0.0
15.6 0.0 0.0 -0.8861292496299518 0.11194415732866766 -0.879926804163349 0.11116060624802586 0.0 0.0
15.625 0.0 0.0 -0.8869583535604617 0.11677028250223902 -0.8793327094306417 0.11576634740683556 0.0 0.0
15.65 0.0 0.0 -0.887679490817701 0.12159696475057659 -0.8787145073475134 0.12036891477275213 0.0 0.0
15.675 0.0 0.0 -0.8882776079686271 0.12642062468893162 -0.8780722148622869 0.1249681821640659 0.0 0.0
15.7 0.0 0.0 -0.8887387405176547 0.13123751922456653 -0.8774058495837348 0.12956402348953877 0.0 0.0
15.725 0.0 0.0 -0.889050186623083 0.1360437957828039 -0.876715429780598 0.13415631275185888 0.0 0.0
15.75 0.0 0.0 -0.889200666935566 0.14083554996879352 -0.8760009743810842 0.13874492405109598 0.0 0.0
15.775 0.0 0.0 -0.8891804678842216 0.14560888574853262 -0.8752625029723488 0.14332973158815485 0.0 0.0
15.8 0.0 0.0 -0.8889815659404676 0.15035997715172233 -0.8745000357999588 0.14791060966821853 0.0 0.0
15.825 0.0 0.0 -0.888597730663153 0.15508513043885047 -0.8737135937673368 0.1524874327042021 0.0 0.0
15.85 0.0 0.0 -0.8880246046655677 0.1597808456380731 -0.8729031984351884 0.15706007522018953 0.0 0.0
15.875 0.0 0.0 -0.8872597590373502 0.1644438763461658 -0.872068872020911 0.16162841185487611 0.0 0.0
15.9 0.0 0.0 -0.8863027231916198 0.16907128670289995 -0.8712106373979844 0.1661923173650061 0.0 0.0
15.925 0.0 0.0 -0.8851549885772879 0.17366050448988535 -0.870328518095345 0.17075166662880403 0.0 0.0
15.95 0.0 0.0 -0.883819986184393 0.17820936937224108 -0.8694225382967385 0.17530633464940634 0.0 0.0
15.975 0.0 0.0 -0.8823030382616104 0.18271617539250223 -0.8684927228400589 0.17985619655828927 0.0 0.0
16.0 0.0 0.0 -0.8806112851447032 0.1871797069381777 -0.8675390972166667 0.18440112761868988 0.0 0.0
16.025 0.0 0.0 -0.8787535885480376 0.19159926753377257 -0.86656168757069 0.18894100322902724 0.0 0.0
16.05 0.0 0.0 -0.8767404130849781 0.1959747009506787 -0.8655605206983081 0.19347569892631777 0.0 0.0
16.075 0.0 0.0 -0.8745836881452734 0.20030640427958515 -0.8645356240470163 0.1980050903895891 0.0 0.0
16.1 0.0 0.0 -0.8722966525590045 0.20459533276514727 -0.8634870257148742 0.20252905344328587 0.0 0.0
16.125 0.0 0.0 -0.8698936847103845 0.2088429963568987 -0.862414754449735 0.20704746406067523 0.0 0.0
16.15 0.0 0.0 -0.8673901209266269 0.21305144807923357 -0.8613188396484567 0.21156019836724851 0.0 0.0
16.175 0.0 0.0 -0.8648020650560003 0.2172232644627246 -0.8601993113560972 0.21606713264411465 0.0 0.0
16.2 0.0 0.0 -0.8621461921667058 0.22136151840561796 -0.8590562002650904 0.22056814333139343 0.0 0.0
16.225 0.0 0.0 -0.8594395492485145 0.22546974494530447 -0.8578895377144042 0.22506310703160398 0.0 0.0
16.25 0.0 0.0 -0.8566993556886816 0.22955190051304541 -0.8566993556886816 0.22955190051304541 0.0 0.0
16.275 0.0 0.0 -0.8539428061307675 0.2336123163201542 -0.8554856868173644 0.23403440071317658 0.0 0.0
16.3 0.0 0.0 -0.8511868781193493 0.2376556465799724 -0.8542485643737974 0.23851048474199096 0.0 0.0
16.325 0.0 0.0 -0.8484481466956879 0.24168681230791947 -0.8529880222743175 0.2429800298853834 0.0 0.0
16.35 0.0 0.0 -0.8457426078500305 0.24571094146292288 -0.8517040950773231 0.24744291360851567 0.0 0.0
16.375 0.0 0.0 -0.8430855124660839 0.2497333061994749 -0.850396817982327 0.2518990135591768 0.0 0.0
16.4 0.0 0.0 -0.8404912121222697 0.25375925799275717 -0.8490662268289909 0.2563482075711354 0.0 0.0
16.425 0.0 0.0 -0.83797301785176 0.25779416138233197 -0.8477123580961436 0.26079037366748964 0.0 0.0
16.45 0.0 0.0 -0.8355430727166544 0.26184332705553964 -0.8463352489007802 0.26522539006401286 0.0 0.0
16.475 0.0 0.0 -0.8332122388272537 0.265911944962745 -0.8449349369970448 0.2696531351724902 0.0 0.0
16.5 0.0 0.0 -0.8309899992396513 0.27000501812553007 -0.8435114607751961 0.2740734876040513 0.0 0.0
16.525 0.0 0.0 -0.8288843749966596 0.27412729776814865 -0.8420648592605531 0.27848632617250396 0.0 0.0
16.55 0.0 0.0 -0.8269018574394356 0.27828322037395825 -0.8405951721124277 0.2828915298976472 0.0 0.0
16.575 0.0 0.0 -0.8250473558095285 0.28247684724370314 -0.8391024396230351 0.287288978008597 0.0 0.0
16.6 0.0 0.0 -0.8233241600814281 0.2867118071121913 -0.8375867027163907 0.2916785499470917 0.0 0.0
16.625 0.0 0.0 -0.8217339189106592 0.290991242364699 -0.8360480029471874 0.29606012537079884 0.0 0.0
16.65 0.0 0.0 -0.820276632547684 0.2953177593839541 -0.8344863824996566 0.3004335841566156 0.0 0.0
16.675 0.0 0.0 -0.8189506605480599 0.29969338355214564 -0.8329018841864118 0.3047988064039598 0.0 0.0
16.7 0.0 0.0 -0.8177527440986727 0.3041195194287606 -0.8312945514472747 0.30915567243805797 0.0 0.0
16.725 0.0 0.0 -0.8166780427723257 0.308596916622369 -0.829664428348084 0.31350406281322774 0.0 0.0
16.75 0.0 0.0 -0.8157201855124036 0.3131256418706293 -0.8280115595794884 0.31784385831615014 0.0 0.0
16.775 0.0 0.0 -0.8148713356298989 0.3177050578353123 -0.8263359904557197 0.32217493996913865 0.0 0.0
16.8 0.0 0.0 -0.814122269561479 0.322333809105358 -0.824637766913352 0.3264971890334028 0.0 0.0
16.825 0.0 0.0 -0.8134624690848997 0.3270098158782158 -0.8229169355100415 0.3308104870123007 0.0 0.0
16.85 0.0 0.0 -0.8128802266134149 0.3317302757553495 -0.8211735434232507 0.33511471565458906 0.0 0.0
16.875 0.0 0.0 -0.8123627630915201 0.33649167403938907 -0.8194076384489538 0.3394097569576661 0.0 0.0
16.9 0.0 0.0 -0.8118963578894083 0.3412898028559895 -0.817619269000328 0.3436954931708045 0.0 0.0
16.925 0.0 0.0 -0.8114664899434141 0.34611978934153126 -0.8158084841064254 0.3479718067983808 0.0 0.0
16.95 0.0 0.0 -0.8110579892165296 0.3509761330374882 -0.8139753334108281 0.3522385806030973 0.0 0.0
16.975 0.0 0.0 -0.8106551973604169 0.35585275251359355 -0.8121198671702885 0.3564956976091946 0.0 0.0
17.0 0.0 0.0 -0.8102421362533513 0.36074304110565897 -0.8102421362533513 0.36074304110565897 0.0 0.0
17.025 0.0 0.0 -0.8098026828737686 0.3656399315017941 -0.8083421921389575 0.3649804946494238 0.0 0.0
17.05 0.0 0.0 -0.8093207487542704 0.3705359687455703 -0.8064200869150352 0.36920794206855917 0.0 0.0
17.075 0.0 0.0 -0.8087804620547236 0.3754233910500428 -0.8044758732770699 0.3734252674654583 0.0 0.0
17.1 0.0 0.0 -0.8081663501047592 0.3802942176369744 -0.8025096045266605 0.3776323552200158 0.0 0.0
17.125 0.0 0.0 -0.8074635201049424 0.38514034263638613 -0.8005213345700583 0.38182908999279536 0.0 0.0
17.15 0.0 0.0 -0.8066578355513991 0.38995363390851734 -0.7985111179166884 0.3860153567281928 0.0 0.0
17.175 0.0 0.0 -0.8057360858692576 0.3947260354895453 -0.7964790096776556 0.3901910406575916 0.0 0.0
17.2 0.0 0.0 -0.8046861467132633 0.39944967222027644 -0.7944250655642341 0.39435602730250713 0.0 0.0
17.225 0.0 0.0 -0.8034971284251445 0.4041169549995136 -0.7923493418863393 0.39851020247772634 0.0 0.0
17.25 0.0 0.0 -0.8021595102305669 0.4087206850164608 -0.7902518955509836 0.40265345229443966 0.0 0.0
17.275 0.0 0.0 -0.8006652579153658 0.4132541552641101 -0.788132784060719 0.4067856631633587 0.0 0.0
17.3 0.0 0.0 -0.7990079229402404 0.41771124762179335 -0.7859920655120569 0.4109067217978354 0.0 0.0
17.325 0.0 0.0 -0.7971827212318172 0.4220865238222792 -0.7838297985938778 0.4150165152169663 0.0 0.0
17.35 0.0 0.0 -0.7951865902198509 0.4263753086879941 -0.7816460425858213 0.41911493074868844 0.0 0.0
17.375 0.0 0.0 -0.7930182230670819 0.4305737641314175 -0.7794408573566617 0.42320185603286936 0.0 0.0
17.4 0.0 0.0 -0.7906780794494946 0.43467895256420447 -0.7772143033626657 0.42727717902438855 0.0 0.0
17.425 0.0 0.0 -0.7881683726784904 0.4386888885443537 -0.7749664416459362 0.43134078799620734 0.0 0.0
17.45 0.0 0.0 -0.7854930333996948 0.4426025777055285 -0.7726973338327376 0.43539257154243255 0.0 0.0
17.475 0.0 0.0 -0.78265765054224 0.4464200422510545 -0.7704070421318064 0.4394324185813722 0.0 0.0
17.5 0.0 0.0 -0.7796693906139005 0.45014233254984704 -0.768095629332647 0.44346021835857885 0.0 0.0
17.525 0.0 0.0 -0.7765368968286338 0.45377152463468634 -0.7657631588038086 0.4474758604498865 0.0 0.0
17.55 0.0 0.0 -0.7732701699024651 0.4573107036667067 -0.763409694491149 0.45147923476443935 0.0 0.0
17.575 0.0 0.0 -0.7698804326514802 0.46076393368575963 -0.7610353009160813 0.4554702315477081 0.0 0.0
17.6 0.0 0.0 -0.7663799807644631 0.46413621420697965 -0.7586400431738051 0.4594487413844994 0.0 0.0
17.625 0.0 0.0 -0.7627820222973462 0.4674334244427847 -0.7562239869315205 0.4634146552019572 0.0 0.0
17.65 0.0 0.0 -0.759100508544635 0.47066225612114204 -0.7537871984266304 0.46736786427255034 0.0 0.0
17.675 0.0 0.0 -0.7553499589844295 0.47383013603103247 -0.7513297444649228 0.4713082602170549 0.0 0.0
17.7 0.0 0.0 -0.7515452829712207 0.47694513955181383 -0.748851692418739 0.4752357350075263 0.0 0.0
17.725 0.0 0.0 -0.7477016007690851 0.48001589651337345 -0.7463531102251277 0.4791501809702588 0.0 0.0
17.75 0.0 0.0 -0.7438340663839822 0.48305149078873877 -0.7438340663839822 0.48305149078873877 0.0 0.0
17.775 0.0 0.0 -0.7399576944758118 0.4860613550417255 -0.7412946299561615 0.48693955750658724 0.0 0.0
17.8 0.0 0.0 -0.7360871934179581 0.4890551620420568 -0.7387348705615983 0.4908142745304909 0.0 0.0
17.825 0.0 0.0 -0.7322368063340252 0.49204271392294624 -0.7361548583773894 0.49467553563312505 0.0 0.0
17.85 0.0 0.0 -0.7284201616883172 0.4950338306959761 -0.733554664135872 0.49852323495606643 0.0 0.0
17.875 0.0 0.0 -0.7246501347478278 0.498038239260275 -0.7309343591226848 0.5023572670126943 0.0 0.0
17.9 0.0 0.0 -0.7209387209779583 0.5010654640528146 -0.7282940151748135 0.5061775266910827 0.0 0.0
17.925 0.0 0.0 -0.717296922189653 0.5041247203893662 -0.725633704678621 0.5099839092568834 0.0 0.0
17.95 0.0 0.0 -0.7137346460286101 0.507224811446283 -0.7229535005678632 0.5137763103561956 0.0 0.0
17.975 0.0 0.0 -0.7102606191927495 0.5103740297363557 -0.7202534763216902 0.517554626018427 0.0 0.0
18.0 0.0 0.0 -0.7068823145856702 0.513580063841354 -0.7175337059626303 0.5213187526591451 0.0 0.0
