! Created with skrf 2.1.0 (http://scikit-rf.org).
# GHz S RI R 60.0 
!freq ReS11 ImS11 ReS21 ImS21 ReS12 ImS12 ReS22 ImS22
8.0 0.0 0.0 0.9998875021093592 -0.01499943750632809 0.9998875021093592 -0.01499943750632809 0.0 0.0
8.025 0.0 0.0 0.9998875021093592 -0.01499943750632809 0.9998875021093592 -0.01499943750632809 0.0 0.0
8.05 0.0 0.0 0.9998875021093592 -0.01499943750632809 0.9998875021093592 -0.01499943750632809 0.0 0.0
8.075 0.0 0.0 0.9998875021093592 -0.01499943750632809 0.9998875021093592 -0.01499943750632809 0.0 0.0
8.1 0.0 0.0 0.9998875021093592 -0.01499943750632809 0.9998875021093592 -0.01499943750632809 0.0 0.0
8.125 0.0 0.0 0.9998875021093592 -0.01499943750632809 0.9998875021093592 -0.01499943750632809 0.0 0.0
8.15 0.0 0.0 0.9998875021093592 -0.01499943750632809 0.9998875021093592 -0.01499943750632809 0.0 0.0
8.175 0.0 0.0 0.9998875021093592 -0.01499943750632809 0.9998875021093592 -0.01499943750632809 0.0 0.0
8.2 0.0 0.0 0.9998875021093592 -0.01499943750632809 0.9998875021093592 -0.01499943750632809 0.0 0.0
8.225 0.0 0.0 0.9998875021093592 -0.01499943750632809 0.9998875021093592 -0.01499943750632809 0.0 0.0
8.25 0.0 0.0 0.9998875021093592 -0.01499943750632809 0.9998875021093592 -0.01499943750632809 0.0 0.0
8.275 0.0 0.0 0.9998875021093592 -0.01499943750632809 0.9998875021093592 -0.01499943750632809 0.0 0.0
8.3 0.0 0.0 0.9998875021093592 -0.01499943750632809 0.9998875021093592 -0.01499943750632809 0.0 0.0
8.325 0.0 0.0 0.9998875021093592 -0.01499943750632809 0.9998875021093592 -0.01499943750632809 0.0 0.0
8.35 0.0 0.0 0.9998875021093592 -0.01499943750632809 0.9998875021093592 -0.01499943750632809 0.0 0.0
8.375 0.0 0.0 0.9998875021093592 -0.01499943750632809 0.9998875021093592 -0.01499943750632809 0.0 0.0
8.4 0.0 0.0 0.9998875021093592 -0.01499943750632809 0.9998875021093592 -0.01499943750632809 0.0 0.0
8.425 0.0 0.0 0.9998875021093592 -0.01499943750632809 0.9998875021093592 -0.01499943750632809 0.0 0.0
8.45 0.0 0.0 0.9998875021093592 -0.01499943750632809 0.9998875021093592 -0.01499943750632809 0.0 0.0
8.475 0.0 0.0 0.9998875021093592 -0.01499943750632809 0.9998875021093592 -0.01499943750632809 0.0 0.0
8.5 0.0 0.0 0.9998875021093592 -0.01499943750632809 0.9998875021093592 -0.01499943750632809 0.0 0.0
8.525 0.0 0.0 0.9998875021093592 -0.01499943750632809 0.9998875021093592 -0.01499943750632809 0.0 0.0
8.55 0.0 0.0 0.9998875021093592 -0.01499943750632809 0.9998875021093592 -0.01499943750632809 0.0 0.0
8.575 0.0 0.0 0.9998875021093592 -0.01499943750632809 0.9998875021093592 -0.01499943750632809 0.0 0.0
8.6 0.0 0.0 0.9998875021093592 -0.01499943750632809 0.9998875021093592 -0.01499943750632809 0.0 0.0
8.625 0.0 0.0 0.9998875021093592 -0.01499943750632809 0.9998875021093592 -0.01499943750632809 0.0 0.0
8.65 0.0 0.0 0.9998875021093592 -0.01499943750632809 0.9998875021093592 -0.01499943750632809 0.0 0.0
8.675 0.0 0.0 0.9998875021093592 -0.01499943750632809 0.9998875021093592 -0.01499943750632809 0.0 0.0
8.7 0.0 0.0 0.9998875021093592 -0.01499943750632809 0.9998875021093592 -0.01499943750632809 0.0 0.0
8.725 0.0 0.0 0.9998875021093592 -0.01499943750632809 0.9998875021093592 -0.01499943750632809 0.0 0.0
8.75 0.0 0.0 0.9998875021093592 -0.01499943750632809 0.9998875021093592 -0.01499943750632809 0.0 0.0
8.775 0.0 0.0 0.9998875021093592 -0.01499943750632809 0.9998875021093592 -0.01499943750632809 0.0 0.0
8.8 0.0 0.0 0.9998875021093592 -0.01499943750632809 0.9998875021093592 -0.01499943750632809 0.0 0.0
8.825 0.0 0.0 0.9998875021093592 -0.01499943750632809 0.9998875021093592 -0.01499943750632809 0.0 0.0
8.85 0.0 0.0 0.9998875021093592 -0.01499943750632809 0.9998875021093592 -0.01499943750632809 0.0 0.0
8.875 0.0 0.0 0.9998875021093592 -0.01499943750632809 0.9998875021093592 -0.01499943750632809 0.0 0.0
8.9 0.0 0.0 0.9998875021093592 -0.01499943750632809 0.9998875021093592 -0.01499943750632809 0.0 0.0
8.925 0.0 0.0 0.9998875021093592 -0.01499943750632809 0.9998875021093592 -0.01499943750632809 0.0 0.0
8.95 0.0 0.0 0.9998875021093592 -0.01499943750632809 0.9998875021093592 -0.01499943750632809 0.0 0.0
8.975 0.0 0.0 0.9998875021093592 -0.01499943750632809 0.9998875021093592 -0.01499943750632809 0.0 0.0
9.0 0.0 0.0 0.9998875021093592 -0.01499943750632809 0.9998875021093592 -0.01499943750632809 0.0 0.0
9.025 0.0 0.0 0.9998875021093592 -0.01499943750632809 0.9998875021093592 -0.01499943750632809 0.0 0.0
9.05 0.0 0.0 0.9998875021093592 -0.01499943750632809 0.9998875021093592 -0.01499943750632809 0.0 0.0
9.075 0.0 0.0 0.9998875021093592 -0.01499943750632809 0.9998875021093592 -0.01499943750632809 0.0 0.0
9.1 0.0 0.0 0.9998875021093592 -0.01499943750632809 0.9998875021093592 -0.01499943750632809 0.0 0.0
9.125 0.0 0.0 0.9998875021093592 -0.01499943750632809 0.9998875021093592 -0.01499943750632809 0.0 0.0
9.15 0.0 0.0 0.9998875021093592 -0.01499943750632809 0.9998875021093592 -0.01499943750632809 0.0 0.0
9.175 0.0 0.0 0.9998875021093592 -0.01499943750632809 0.9998875021093592 -0.01499943750632809 0.0 0.0
9.2 0.0 0.0 0.9998875021093592 -0.01499943750632809 0.9998875021093592 -0.01499943750632809 0.0 0.0
9.225 0.0 0.0 0.9998875021093592 -0.01499943750632809 0.9998875021093592 -0.01499943750632809 0.0 0.0
9.25 0.0 0.0 0.9998875021093592 -0.01499943750632809 0.9998875021093592 -0.01499943750632809 0.0 0.0
9.275 0.0 0.0 0.9998875021093592 -0.01499943750632809 0.9998875021093592 -0.01499943750632809 0.0 0.0
9.3 0.0 0.0 0.9998875021093592 -0.01499943750632809 0.9998875021093592 -0.01499943750632809 0.0 0.0
9.325 0.0 0.0 0.9998875021093592 -0.01499943750632809 0.9998875021093592 -0.01499943750632809 0.0 0.0
9.35 0.0 0.0 0.9998875021093592 -0.01499943750632809 0.9998875021093592 -0.01499943750632809 0.0 0.0
9.375 0.0 0.0 0.9998875021093592 -0.01499943750632809 0.9998875021093592 -0.01499943750632809 0.0 0.0
9.4 0.0 0.0 0.9998875021093592 -0.01499943750632809 0.9998875021093592 -0.01499943750632809 0.0 0.0
9.425 0.0 0.0 0.9998875021093592 -0.01499943750632809 0.9998875021093592 -0.01499943750632809 0.0 0.0
9.45 0.0 0.0 0.9998875021093592 -0.01499943750632809 0.9998875021093592 -0.01499943750632809 0.0 0.0
9.475 0.0 0.0 0.9998875021093592 -0.01499943750632809 0.9998875021093592 -0.01499943750632809 0.0 0.0
9.5 0.0 0.0 0.9998875021093592 -0.01499943750632809 0.9998875021093592 -0.01499943750632809 0.0 0.0
9.525 0.0 0.0 0.9998875021093592 -0.01499943750632809 0.9998875021093592 -0.01499943750632809 0.0 0.0
9.55 0.0 0.0 0.9998875021093592 -0.01499943750632809 0.9998875021093592 -0.01499943750632809 0.0 0.0
9.575 0.0 0.0 0.9998875021093592 -0.01499943750632809 0.9998875021093592 -0.01499943750632809 0.0 0.0
9.6 0.0 0.0 0.9998875021093592 -0.01499943750632809 0.9998875021093592 -0.01499943750632809 0.0 0.0
9.625 0.0 0.0 0.9998875021093592 -0.01499943750632809 0.9998875021093592 -0.01499943750632809 0.0 0.0
9.65 0.0 0.0 0.9998875021093592 -0.01499943750632809 0.9998875021093592 -0.01499943750632809 0.0 0.0
9.675 0.0 0.0 0.9998875021093592 -0.01499943750632809 0.9998875021093592 -0.01499943750632809 0.0 0.0
9.7 0.0 0.0 0.9998875021093592 -0.01499943750632809 0.9998875021093592 -0.01499943750632809 0.0 0.0
9.725 0.0 0.0 0.9998875021093592 -0.01499943750632809 0.9998875021093592 -0.01499943750632809 0.0 0.0
9.75 0.0 0.0 0.9998875021093592 -0.01499943750632809 0.9998875021093592 -0.01499943750632809 0.0 0.0
9.775 0.0 0.0 0.9998875021093592 -0.01499943750632809 0.9998875021093592 -0.01499943750632809 0.0 0.0
9.8 0.0 0.0 0.9998875021093592 -0.01499943750632809 0.9998875021093592 -0.01499943750632809 0.0 0.0
9.825 0.0 0.0 0.9998875021093592 -0.01499943750632809 0.9998875021093592 -0.01499943750632809 0.0 0.0
9.85 0.0 0.0 0.9998875021093592 -0.01499943750632809 0.9998875021093592 -0.01499943750632809 0.0 0.0
9.875 0.0 0.0 0.9998875021093592 -0.01499943750632809 0.9998875021093592 -0.01499943750632809 0.0 0.0
9.9 0.0 0.0 0.9998875021093592 -0.01499943750632809 0.9998875021093592 -0.01499943750632809 0.0 0.0
9.925 0.0 0.0 0.9998875021093592 -0.01499943750632809 0.9998875021093592 -0.01499943750632809 0.0 0.0
9.95 0.0 0.0 0.9998875021093592 -0.01499943750632809 0.9998875021093592 -0.01499943750632809 0.0 0.0
9.975 0.0 0.0 0.9998875021093592 -0.01499943750632809 0.9998875021093592 -0.01499943750632809 0.0 0.0
10.0 0.0 0.0 0.9998875021093592 -0.01499943750632809 0.9998875021093592 -0.01499943750632809 0.0 0.0
10.025 0.0 0.0 0.9998875021093592 -0.01499943750632809 0.9998875021093592 -0.01499943750632809 0.0 0.0
10.05 0.0 0.0 0.9998875021093592 -0.01499943750632809 0.9998875021093592 -0.01499943750632809 0.0 0.0
10.075 0.0 0.0 0.9998875021093592 -0.01499943750632809 0.9998875021093592 -0.01499943750632809 0.0 0.0
10.1 0.0 0.0 0.9998875021093592 -0.01499943750632809 0.9998875021093592 -0.01499943750632809 0.0 0.0
10.125 0.0 0.0 0.9998875021093592 -0.01499943750632809 0.9998875021093592 -0.01499943750632809 0.0 0.0
10.15 0.0 0.0 0.9998875021093592 -0.01499943750632809 0.9998875021093592 -0.01499943750632809 0.0 0.0
10.175 0.0 0.0 0.9998875021093592 -0.01499943750632809 0.9998875021093592 -0.01499943750632809 0.0 0.0
10.2 0.0 0.0 0.9998875021093592 -0.01499943750632809 0.9998875021093592 -0.01499943750632809 0.0 0.0
10.225 0.0 0.0 0.9998875021093592 -0.01499943750632809 0.9998875021093592 -0.01499943750632809 0.0 0.0
10.25 0.0 0.0 0.9998875021093592 -0.01499943750632809 0.9998875021093592 -0.01499943750632809 0.0 0.0
10.275 0.0 0.0 0.9998875021093592 -0.01499943750632809 0.9998875021093592 -0.01499943750632809 0.0 0.0
10.3 0.0 0.0 0.9998875021093592 -0.01499943750632809 0.9998875021093592 -0.01499943750632809 0.0 0.0
10.325 0.0 0.0 0.9998875021093592 -0.01499943750632809 0.9998875021093592 -0.01499943750632809 0.0 0.0
10.35 0.0 0.0 0.9998875021093592 -0.01499943750632809 0.9998875021093592 -0.01499943750632809 0.0 0.0
10.375 0.0 0.0 0.9998875021093592 -0.01499943750632809 0.9998875021093592 -0.01499943750632809 0.0 0.0
10.4 0.0 0.0 0.9998875021093592 -0.01499943750632809 0.9998875021093592 -0.01499943750632809 0.0 0.0
10.425 0.0 0.0 0.9998875021093592 -0.01499943750632809 0.9998875021093592 -0.01499943750632809 0.0 0.0
10.45 0.0 0.0 0.9998875021093592 -0.01499943750632809 0.9998875021093592 -0.01499943750632809 0.0 0.0
10.475 0.0 0.0 0.9998875021093592 -0.01499943750632809 0.9998875021093592 -0.01499943750632809 0.0 0.0
10.5 0.0 0.0 0.9998875021093592 -0.01499943750632809 0.9998875021093592 -0.01499943750632809 0.0 0.0
10.525 0.0 0.0 0.9998875021093592 -0.01499943750632809 0.9998875021093592 -0.01499943750632809 0.0 0.0
10.55 0.0 0.0 0.9998875021093592 -0.01499943750632809 0.9998875021093592 -0.01499943750632809 0.0 0.0
10.575 0.0 0.0 0.9998875021093592 -0.01499943750632809 0.9998875021093592 -0.01499943750632809 0.0 0.0
10.6 0.0 0.0 0.9998875021093592 -0.01499943750632809 0.9998875021093592 -0.01499943750632809 0.0 0.0
10.625 0.0 0.0 0.9998875021093592 -0.01499943750632809 0.9998875021093592 -0.01499943750632809 0.0 0.0
10.65 0.0 0.0 0.9998875021093592 -0.01499943750632809 0.9998875021093592 -0.01499943750632809 0.0 0.0
10.675 0.0 0.0 0.9998875021093592 -0.01499943750632809 0.9998875021093592 -0.01499943750632809 0.0 0.0
10.7 0.0 0.0 0.9998875021093592 -0.01499943750632809 0.9998875021093592 -0.01499943750632809 0.0 0.0
10.725 0.0 0.0 0.9998875021093592 -0.01499943750632809 0.9998875021093592 -0.01499943750632809 0.0 0.0
10.75 0.0 0.0 0.9998875021093592 -0.01499943750632809 0.9998875021093592 -0.01499943750632809 0.0 0.0
10.775 0.0 0.0 0.9998875021093592 -0.01499943750632809 0.9998875021093592 -0.01499943750632809 0.0 0.0
10.8 0.0 0.0 0.9998875021093592 -0.01499943750632809 0.9998875021093592 -0.01499943750632809 0.0 0.0
10.825 0.0 0.0 0.9998875021093592 -0.01499943750632809 0.9998875021093592 -0.01499943750632809 0.0 0.0
10.85 0.0 0.0 0.9998875021093592 -0.01499943750632809 0.9998875021093592 -0.01499943750632809 0.0 0.0
10.875 0.0 0.0 0.9998875021093592 -0.01499943750632809 0.9998875021093592 -0.01499943750632809 0.0 0.0
10.9 0.0 0.0 0.9998875021093592 -0.01499943750632809 0.9998875021093592 -0.01499943750632809 0.0 0.0
10.925 0.0 0.0 0.9998875021093592 -0.01499943750632809 0.9998875021093592 -0.01499943750632809 0.0 0.0
10.95 0.0 0.0 0.9998875021093592 -0.01499943750632809 0.9998875021093592 -0.01499943750632809 0.0 0.0
10.975 0.0 0.0 0.9998875021093592 -0.01499943750632809 0.9998875021093592 -0.01499943750632809 0.0 0.0
11.0 0.0 0.0 0.9998875021093592 -0.01499943750632809 0.9998875021093592 -0.01499943750632809 0.0 0.0
11.025 0.0 0.0 0.9998875021093592 -0.01499943750632809 0.9998875021093592 -0.01499943750632809 0.0 0.0
11.05 0.0 0.0 0.9998875021093592 -0.01499943750632809 0.9998875021093592 -0.01499943750632809 0.0 0.0
11.075 0.0 0.0 0.9998875021093592 -0.01499943750632809 0.9998875021093592 -0.01499943750632809 0.0 0.0
11.1 0.0 0.0 0.9998875021093592 -0.01499943750632809 0.9998875021093592 -0.01499943750632809 0.0 0.0
11.125 0.0 0.0 0.9998875021093592 -0.01499943750632809 0.9998875021093592 -0.01499943750632809 0.0 0.0
11.15 0.0 0.0 0.9998875021093592 -0.01499943750632809 0.9998875021093592 -0.01499943750632809 0.0 0.0
11.175 0.0 0.0 0.9998875021093592 -0.01499943750632809 0.9998875021093592 -0.01499943750632809 0.0 0.0
11.2 0.0 0.0 0.9998875021093592 -0.01499943750632809 0.9998875021093592 -0.01499943750632809 0.0 0.0
11.225 0.0 0.0 0.9998875021093592 -0.01499943750632809 0.9998875021093592 -0.01499943750632809 0.0 0.0
11.25 0.0 0.0 0.9998875021093592 -0.01499943750632809 0.9998875021093592 -0.01499943750632809 0.0 0.0
11.275 0.0 0.0 0.9998875021093592 -0.01499943750632809 0.9998875021093592 -0.01499943750632809 0.0 0.0
11.3 0.0 0.0 0.9998875021093592 -0.01499943750632809 0.9998875021093592 -0.01499943750632809 0.0 0.0
11.325 0.0 0.0 0.9998875021093592 -0.01499943750632809 0.9998875021093592 -0.01499943750632809 0.0 0.0
11.35 0.0 0.0 0.9998875021093592 -0.01499943750632809 0.9998875021093592 -0.01499943750632809 0.0 0.0
11.375 0.0 0.0 0.9998875021093592 -0.01499943750632809 0.9998875021093592 -0.01499943750632809 0.0 0.0
11.4 0.0 0.0 0.9998875021093592 -0.01499943750632809 0.9998875021093592 -0.01499943750632809 0.0 0.0
11.425 0.0 0.0 0.9998875021093592 -0.01499943750632809 0.9998875021093592 -0.01499943750632809 0.0 0.0
11.45 0.0 0.0 0.9998875021093592 -0.01499943750632809 0.9998875021093592 -0.01499943750632809 0.0 0.0
11.475 0.0 0.0 0.9998875021093592 -0.01499943750632809 0.9998875021093592 -0.01499943750632809 0.0 0.0
11.5 0.0 0.0 0.9998875021093592 -0.01499943750632809 0.9998875021093592 -0.01499943750632809 0.0 0.0
11.525 0.0 0.0 0.9998875021093592 -0.01499943750632809 0.9998875021093592 -0.01499943750632809 0.0 0.0
11.55 0.0 0.0 0.9998875021093592 -0.01499943750632809 0.9998875021093592 -0.01499943750632809 0.0 0.0
11.575 0.0 0.0 0.9998875021093592 -0.01499943750632809 0.9998875021093592 -0.01499943750632809 0.0 0.0
11.6 0.0 0.0 0.9998875021093592 -0.01499943750632809 0.9998875021093592 -0.01499943750632809 0.0 0.0
11.625 0.0 0.0 0.9998875021093592 -0.01499943750632809 0.9998875021093592 -0.01499943750632809 0.0 0.0
11.65 0.0 0.0 0.9998875021093592 -0.01499943750632809 0.9998875021093592 -0.01499943750632809 0.0 0.0
11.675 0.0 0.0 0.9998875021093592 -0.01499943750632809 0.9998875021093592 -0.01499943750632809 0.0 0.0
11.7 0.0 0.0 0.9998875021093592 -0.01499943750632809 0.9998875021093592 -0.01499943750632809 0.0 0.0
11.725 0.0 0.0 0.9998875021093592 -0.01499943750632809 0.9998875021093592 -0.01499943750632809 0.0 0.0
11.75 0.0 0.0 0.9998875021093592 -0.01499943750632809 0.9998875021093592 -0.01499943750632809 0.0 0.0
11.775 0.0 0.0 0.9998875021093592 -0.01499943750632809 0.9998875021093592 -0.01499943750632809 0.0 0.0
11.8 0.0 0.0 0.9998875021093592 -0.01499943750632809 0.9998875021093592 -0.01499943750632809 0.0 0.0
11.825 0.0 0.0 0.9998875021093592 -0.01499943750632809 0.9998875021093592 -0.01499943750632809 0.0 0.0
11.85 0.0 0.0 0.9998875021093592 -0.01499943750632809 0.9998875021093592 -0.01499943750632809 0.0 0.0
11.875 0.0 0.0 0.9998875021093592 -0.01499943750632809 0.9998875021093592 -0.01499943750632809 0.0 0.0
11.9 0.0 0.0 0.9998875021093592 -0.01499943750632809 0.9998875021093592 -0.01499943750632809 0.0 0.0
11.925 0.0 0.0 0.9998875021093592 -0.01499943750632809 0.9998875021093592 -0.01499943750632809 0.0 0.0
11.95 0.0 0.0 0.9998875021093592 -0.01499943750632809 0.9998875021093592 -0.01499943750632809 0.0 0.0
11.975 0.0 0.0 0.9998875021093592 -0.01499943750632809 0.9998875021093592 -0.01499943750632809 0.0 0.0
12.0 0.0 0.0 0.9998875021093592 -0.01499943750632809 0.9998875021093592 -0.01499943750632809 0.0 0.0
12.025 0.0 0.0 0.9998875021093592 -0.01499943750632809 0.9998875021093592 -0.01499943750632809 0.0 0.0
12.05 0.0 0.0 0.9998875021093592 -0.01499943750632809 0.9998875021093592 -0.01499943750632809 0.0 0.0
12.075 0.0 0.0 0.9998875021093592 -0.01499943750632809 0.9998875021093592 -0.01499943750632809 0.0 0.0
12.1 0.0 0.0 0.9998875021093592 -0.01499943750632809 0.9998875021093592 -0.01499943750632809 0.0 0.0
12.125 0.0 0.0 0.9998875021093592 -0.01499943750632809 0.9998875021093592 -0.01499943750632809 0.0 0.0
12.15 0.0 0.0 0.9998875021093592 -0.01499943750632809 0.9998875021093592 -0.01499943750632809 0.0 0.0
12.175 0.0 0.0 0.9998875021093592 -0.01499943750632809 0.9998875021093592 -0.01499943750632809 0.0 0.0
12.2 0.0 0.0 0.9998875021093592 -0.01499943750632809 0.9998875021093592 -0.01499943750632809 0.0 0.0
12.225 0.0 0.0 0.9998875021093592 -0.01499943750632809 0.9998875021093592 -0.01499943750632809 0.0 0.0
12.25 0.0 0.0 0.9998875021093592 -0.01499943750632809 0.9998875021093592 -0.01499943750632809 0.0 0.0
12.275 0.0 0.0 0.9998875021093592 -0.01499943750632809 0.9998875021093592 -0.01499943750632809 0.0 0.0
12.3 0.0 0.0 0.9998875021093592 -0.01499943750632809 0.9998875021093592 -0.01499943750632809 0.0 0.0
12.325 0.0 0.0 0.9998875021093592 -0.01499943750632809 0.9998875021093592 -0.01499943750632809 0.0 0.0
12.35 0.0 0.0 0.9998875021093592 -0.01499943750632809 0.9998875021093592 -0.01499943750632809 0.0 0.0
12.375 0.0 0.0 0.9998875021093592 -0.01499943750632809 0.9998875021093592 -0.01499943750632809 0.0 0.0
12.4 0.0 0.0 0.9998875021093592 -0.01499943750632809 0.9998875021093592 -0.01499943750632809 0.0 0.0
12.425 0.0 0.0 0.9998875021093592 -0.01499943750632809 0.9998875021093592 -0.01499943750632809 0.0 0.0
12.45 0.0 0.0 0.9998875021093592 -0.01499943750632809 0.9998875021093592 -0.01499943750632809 0.0 0.0
12.475 0.0 0.0 0.9998875021093592 -0.01499943750632809 0.9998875021093592 -0.01499943750632809 0.0 0.0
12.5 0.0 0.0 0.9998875021093592 -0.01499943750632809 0.9998875021093592 -0.01499943750632809 0.0 0.0
12.525 0.0 0.0 0.9998875021093592 -0.01499943750632809 0.9998875021093592 -0.01499943750632809 0.0 0.0
12.55 0.0 0.0 0.9998875021093592 -0.01499943750632809 0.9998875021093592 -0.01499943750632809 0.0 0.0
12.575 0.0 0.0 0.9998875021093592 -0.01499943750632809 0.9998875021093592 -0.01499943750632809 0.0 0.0
12.6 0.0 0.0 0.9998875021093592 -0.01499943750632809 0.9998875021093592 -0.01499943750632809 0.0 0.0
12.625 0.0 0.0 0.9998875021093592 -0.01499943750632809 0.9998875021093592 -0.01499943750632809 0.0 0.0
12.65 0.0 0.0 0.9998875021093592 -0.01499943750632809 0.9998875021093592 -0.01499943750632809 0.0 0.0
12.675 0.0 0.0 0.9998875021093592 -0.01499943750632809 0.9998875021093592 -0.01499943750632809 0.0 0.0
12.7 0.0 0.0 0.9998875021093592 -0.01499943750632809 0.9998875021093592 -0.01499943750632809 0.0 0.0
12.725 0.0 0.0 0.9998875021093592 -0.01499943750632809 0.9998875021093592 -0.01499943750632809 0.0 0.0
12.75 0.0 0.0 0.9998875021093592 -0.01499943750632809 0.9998875021093592 -0.01499943750632809 0.0 0.0
12.775 0.0 0.0 0.9998875021093592 -0.01499943750632809 0.9998875021093592 -0.01499943750632809 0.0 0.0
12.8 0.0 0.0 0.9998875021093592 -0.01499943750632809 0.9998875021093592 -0.01499943750632809 0.0 0.0
12.825 0.0 0.0 0.9998875021093592 -0.01499943750632809 0.9998875021093592 -0.01499943750632809 0.0 0.0
12.85 0.0 0.0 0.9998875021093592 -0.01499943750632809 0.9998875021093592 -0.01499943750632809 0.0 0.0
12.875 0.0 0.0 0.9998875021093592 -0.01499943750632809 0.9998875021093592 -0.01499943750632809 0.0 0.0
12.9 0.0 0.0 0.9998875021093592 -0.01499943750632809 0.9998875021093592 -0.01499943750632809 0.0 0.0
12.925 0.0 0.0 0.9998875021093592 -0.01499943750632809 0.9998875021093592 -0.01499943750632809 0.0 0.0
12.95 0.0 0.0 0.9998875021093592 -0.01499943750632809 0.9998875021093592 -0.01499943750632809 0.0 0.0
12.975 0.0 0.0 0.9998875021093592 -0.01499943750632809 0.9998875021093592 -0.01499943750632809 0.0 0.0
13.0 0.0 0.0 0.9998875021093592 -0.01499943750632809 0.9998875021093592 -0.01499943750632809 0.0 0.0
13.025 0.0 0.0 0.9998875021093592 -0.01499943750632809 0.9998875021093592 -0.01499943750632809 0.0 0.0
13.05 0.0 0.0 0.9998875021093592 -0.01499943750632809 0.9998875021093592 -0.01499943750632809 0.0 0.0
13.075 0.0 0.0 0.9998875021093592 -0.01499943750632809 0.9998875021093592 -0.01499943750632809 0.0 0.0
13.1 0.0 0.0 0.9998875021093592 -0.01499943750632809 0.9998875021093592 -0.01499943750632809 0.0 0.0
13.125 0.0 0.0 0.9998875021093592 -0.01499943750632809 0.9998875021093592 -0.01499943750632809 0.0 0.0
13.15 0.0 0.0 0.9998875021093592 -0.01499943750632809 0.9998875021093592 -0.01499943750632809 0.0 0.0
13.175 0.0 0.0 0.9998875021093592 -0.01499943750632809 0.9998875021093592 -0.01499943750632809 0.0 0.0
13.2 0.0 0.0 0.9998875021093592 -0.01499943750632809 0.9998875021093592 -0.01499943750632809 0.0 0.0
13.225 0.0 0.0 0.9998875021093592 -0.01499943750632809 0.9998875021093592 -0.01499943750632809 0.0 0.0
13.25 0.0 0.0 0.9998875021093592 -0.01499943750632809 0.9998875021093592 -0.01499943750632809 0.0 0.0
13.275 0.0 0.0 0.9998875021093592 -0.01499943750632809 0.9998875021093592 -0.01499943750632809 0.0 0.0
13.3 0.0 0.0 0.9998875021093592 -0.01499943750632809 0.9998875021093592 -0.01499943750632809 0.0 0.0
13.325 0.0 0.0 0.9998875021093592 -0.01499943750632809 0.9998875021093592 -0.01499943750632809 0.0 0.0
13.35 0.0 0.0 0.9998875021093592 -0.01499943750632809 0.9998875021093592 -0.01499943750632809 0.0 0.0
13.375 0.0 0.0 0.9998875021093592 -0.01499943750632809 0.9998875021093592 -0.01499943750632809 0.0 0.0
13.4 0.0 0.0 0.9998875021093592 -0.01499943750632809 0.9998875021093592 -0.01499943750632809 0.0 0.0
13.425 0.0 0.0 0.9998875021093592 -0.01499943750632809 0.9998875021093592 -0.01499943750632809 0.0 0.0
13.45 0.0 0.0 0.9998875021093592 -0.01499943750632809 0.9998875021093592 -0.01499943750632809 0.0 0.0
13.475 0.0 0.0 0.9998875021093592 -0.01499943750632809 0.9998875021093592 -0.01499943750632809 0.0 0.0
13.5 0.0 0.0 0.9998875021093592 -0.01499943750632809 0.9998875021093592 -0.01499943750632809 0.0 0.0
13.525 0.0 0.0 0.9998875021093592 -0.01499943750632809 0.9998875021093592 -0.01499943750632809 0.0 0.0
13.55 0.0 0.0 0.9998875021093592 -0.01499943750632809 0.9998875021093592 -0.01499943750632809 0.0 0.0
13.575 0.0 0.0 0.9998875021093592 -0.01499943750632809 0.9998875021093592 -0.01499943750632809 0.0 0.0
13.6 0.0 0.0 0.9998875021093592 -0.01499943750632809 0.9998875021093592 -0.01499943750632809 0.0 0.0
13.625 0.0 0.0 0.9998875021093592 -0.01499943750632809 0.9998875021093592 -0.01499943750632809 0.0 0.0
13.65 0.0 0.0 0.9998875021093592 -0.01499943750632809 0.9998875021093592 -0.01499943750632809 0.0 0.0
13.675 0.0 0.0 0.9998875021093592 -0.01499943750632809 0.9998875021093592 -0.01499943750632809 0.0 0.0
13.7 0.0 0.0 0.9998875021093592 -0.01499943750632809 0.9998875021093592 -0.01499943750632809 0.0 0.0
13.725 0.0 0.0 0.9998875021093592 -0.01499943750632809 0.9998875021093592 -0.01499943750632809 0.0 0.0
13.75 0.0 0.0 0.9998875021093592 -0.01499943750632809 0.9998875021093592 -0.01499943750632809 0.0 0.0
13.775 0.0 0.0 0.9998875021093592 -0.01499943750632809 0.9998875021093592 -0.01499943750632809 0.0 0.0
13.8 0.0 0.0 0.9998875021093592 -0.01499943750632809 0.9998875021093592 -0.01499943750632809 0.0 0.0
13.825 0.0 0.0 0.9998875021093592 -0.01499943750632809 0.9998875021093592 -0.01499943750632809 0.0 0.0
13.85 0.0 0.0 0.9998875021093592 -0.01499943750632809 0.9998875021093592 -0.01499943750632809 0.0 0.0
13.875 0.0 0.0 0.9998875021093592 -0.01499943750632809 0.9998875021093592 -0.01499943750632809 0.0 0.0
13.9 0.0 0.0 0.9998875021093592 -0.01499943750632809 0.9998875021093592 -0.01499943750632809 0.0 0.0
13.925 0.0 0.0 0.9998875021093592 -0.01499943750632809 0.9998875021093592 -0.01499943750632809 0.0 0.0
13.95 0.0 0.0 0.9998875021093592 -0.01499943750632809 0.9998875021093592 -0.01499943750632809 0.0 0.0
13.975 0.0 0.0 0.9998875021093592 -0.01499943750632809 0.9998875021093592 -0.01499943750632809 0.0 0.0
14.0 0.0 0.0 0.9998875021093592 -0.01499943750632809 0.9998875021093592 -0.01499943750632809 0.0 0.0
14.025 0.0 0.0 0.9998875021093592 -0.01499943750632809 0.9998875021093592 -0.01499943750632809 0.0 0.0
14.05 0.0 0.0 0.9998875021093592 -0.01499943750632809 0.9998875021093592 -0.01499943750632809 0.0 0.0
14.075 0.0 0.0 0.9998875021093592 -0.01499943750632809 0.9998875021093592 -0.01499943750632809 0.0 0.0
14.1 0.0 0.0 0.9998875021093592 -0.01499943750632809 0.9998875021093592 -0.01499943750632809 0.0 0.0
14.125 0.0 0.0 0.9998875021093592 -0.01499943750632809 0.9998875021093592 -0.01499943750632809 0.0 0.0
14.15 0.0 0.0 0.9998875021093592 -0.01499943750632809 0.9998875021093592 -0.01499943750632809 0.0 0.0
14.175 0.0 0.0 0.9998875021093592 -0.01499943750632809 0.9998875021093592 -0.01499943750632809 0.0 0.0
14.2 0.0 0.0 0.9998875021093592 -0.01499943750632809 0.9998875021093592 -0.01499943750632809 0.0 0.0
14.225 0.0 0.0 0.9998875021093592 -0.01499943750632809 0.9998875021093592 -0.01499943750632809 0.0 0.0
14.25 0.0 0.0 0.9998875021093592 -0.01499943750632809 0.9998875021093592 -0.01499943750632809 0.0 0.0
14.275 0.0 0.0 0.9998875021093592 -0.01499943750632809 0.9998875021093592 -0.01499943750632809 0.0 0.0
14.3 0.0 0.0 0.9998875021093592 -0.01499943750632809 0.9998875021093592 -0.01499943750632809 0.0 0.0
14.325 0.0 0.0 0.9998875021093592 -0.01499943750632809 0.9998875021093592 -0.01499943750632809 0.0 0.0
14.35 0.0 0.0 0.9998875021093592 -0.01499943750632809 0.9998875021093592 -0.01499943750632809 0.0 0.0
14.375 0.0 0.0 0.9998875021093592 -0.01499943750632809 0.9998875021093592 -0.01499943750632809 0.0 0.0
14.4 0.0 0.0 0.9998875021093592 -0.01499943750632809 0.9998875021093592 -0.01499943750632809 0.0 0.0
14.425 0.0 0.0 0.9998875021093592 -0.01499943750632809 0.9998875021093592 -0.01499943750632809 0.0 0.0
14.45 0.0 0.0 0.9998875021093592 -0.01499943750632809 0.9998875021093592 -0.01499943750632809 0.0 0.0
14.475 0.0 0.0 0.9998875021093592 -0.01499943750632809 0.9998875021093592 -0.01499943750632809 0.0 0.0
14.5 0.0 0.0 0.9998875021093592 -0.01499943750632809 0.9998875021093592 -0.01499943750632809 0.0 0.0
14.525 0.0 0.0 0.9998875021093592 -0.01499943750632809 0.9998875021093592 -0.01499943750632809 0.0 0.0
14.55 0.0 0.0 0.9998875021093592 -0.01499943750632809 0.9998875021093592 -0.01499943750632809 0.0 0.0
14.575 0.0 0.0 0.9998875021093592 -0.01499943750632809 0.9998875021093592 -0.01499943750632809 0.0 0.0
14.6 0.0 0.0 0.9998875021093592 -0.01499943750632809 0.9998875021093592 -0.01499943750632809 0.0 0.0
14.625 0.0 0.0 0.9998875021093592 -0.01499943750632809 0.9998875021093592 -0.01499943750632809 0.0 0.0
14.65 0.0 0.0 0.9998875021093592 -0.01499943750632809 0.9998875021093592 -0.01499943750632809 0.0 0.0
14.675 0.0 0.0 0.9998875021093592 -0.01499943750632809 0.9998875021093592 -0.01499943750632809 0.0 0.0
14.7 0.0 0.0 0.9998875021093592 -0.01499943750632809 0.9998875021093592 -0.01499943750632809 0.0 0.0
14.725 0.0 0.0 0.9998875021093592 -0.01499943750632809 0.9998875021093592 -0.01499943750632809 0.0 0.0
14.75 0.0 0.0 0.9998875021093592 -0.01499943750632809 0.9998875021093592 -0.01499943750632809 0.0 0.0
14.775 0.0 0.0 0.9998875021093592 -0.01499943750632809 0.9998875021093592 -0.01499943750632809 0.0 0.0
14.8 0.0 0.0 0.9998875021093592 -0.01499943750632809 0.9998875021093592 -0.01499943750632809 0.0 0.0
14.825 0.0 0.0 0.9998875021093592 -0.01499943750632809 0.9998875021093592 -0.01499943750632809 0.0 0.0
14.85 0.0 0.0 0.9998875021093592 -0.01499943750632809 0.9998875021093592 -0.01499943750632809 0.0 0.0
14.875 0.0 0.0 0.9998875021093592 -0.01499943750632809 0.9998875021093592 -0.01499943750632809 0.0 0.0
14.9 0.0 0.0 0.9998875021093592 -0.01499943750632809 0.9998875021093592 -0.01499943750632809 0.0 0.0
14.925 0.0 0.0 0.9998875021093592 -0.01499943750632809 0.9998875021093592 -0.01499943750632809 0.0 0.0
14.95 0.0 0.0 0.9998875021093592 -0.01499943750632809 0.9998875021093592 -0.01499943750632809 0.0 0.0
14.975 0.0 0.0 0.9998875021093592 -0.01499943750632809 0.9998875021093592 -0.01499943750632809 0.0 0.0
15.0 0.0 0.0 0.9998875021093592 -0.01499943750632809 0.9998875021093592 -0.01499943750632809 0.0 0.0
15.025 0.0 0.0 0.9998875021093592 -0.01499943750632809 0.9998875021093592 -0.01499943750632809 0.0 0.0
15.05 0.0 0.0 0.9998875021093592 -0.01499943750632809 0.9998875021093592 -0.01499943750632809 0.0 0.0
15.075 0.0 0.0 0.9998875021093592 -0.01499943750632809 0.9998875021093592 -0.01499943750632809 0.0 0.0
15.1 0.0 0.0 0.9998875021093592 -0.01499943750632809 0.9998875021093592 -0.01499943750632809 0.0 0.0
15.125 0.0 0.0 0.9998875021093592 -0.01499943750632809 0.9998875021093592 -0.01499943750632809 0.0 0.0
15.15 0.0 0.0 0.9998875021093592 -0.01499943750632809 0.9998875021093592 -0.01499943750632809 0.0 0.0
15.175 0.0 0.0 0.9998875021093592 -0.01499943750632809 0.9998875021093592 -0.01499943750632809 0.0 0.0
15.2 0.0 0.0 0.9998875021093592 -0.01499943750632809 0.9998875021093592 -0.01499943750632809 0.0 0.0
15.225 0.0 0.0 0.9998875021093592 -0.01499943750632809 0.9998875021093592 -0.01499943750632809 0.0 0.0
15.25 0.0 0.0 0.9998875021093592 -0.01499943750632809 0.9998875021093592 -0.01499943750632809 0.0 0.0
15.275 0.0 0.0 0.9998875021093592 -0.01499943750632809 0.9998875021093592 -0.01499943750632809 0.0 0.0
15.3 0.0 0.0 0.9998875021093592 -0.01499943750632809 0.9998875021093592 -0.01499943750632809 0.0 0.0
15.325 0.0 0.0 0.9998875021093592 -0.01499943750632809 0.9998875021093592 -0.01499943750632809 0.0 0.0
15.35 0.0 0.0 0.9998875021093592 -0.01499943750632809 0.9998875021093592 -0.01499943750632809 0.0 0.0
15.375 0.0 0.0 0.9998875021093592 -0.01499943750632809 0.9998875021093592 -0.01499943750632809 0.0 0.0
15.4 0.0 0.0 0.9998875021093592 -0.01499943750632809 0.9998875021093592 -0.01499943750632809 0.0 0.0
15.425 0.0 0.0 0.9998875021093592 -0.01499943750632809 0.9998875021093592 -0.01499943750632809 0.0 0.0
15.45 0.0 0.0 0.9998875021093592 -0.01499943750632809 0.9998875021093592 -0.01499943750632809 0.0 0.0
15.475 0.0 0.0 0.9998875021093592 -0.01499943750632809 0.9998875021093592 -0.01499943750632809 0.0 0.0
15.5 0.0 0.0 0.9998875021093592 -0.01499943750632809 0.9998875021093592 -0.01499943750632809 0.0 0.0
15.525 0.0 0.0 0.9998875021093592 -0.01499943750632809 0.9998875021093592 -0.01499943750632809 0.0 0.0
15.55 0.0 0.0 0.9998875021093592 -0.01499943750632809 0.9998875021093592 -0.01499943750632809 0.0 0.0
15.575 0.0 0.0 0.9998875021093592 -0.01499943750632809 0.9998875021093592 -0.01499943750632809 0.0 0.0
15.6 0.0 0.0 0.9998875021093592 -0.01499943750632809 0.9998875021093592 -0.01499943750632809 0.0 0.0
15.625 0.0 0.0 0.9998875021093592 -0.01499943750632809 0.9998875021093592 -0.01499943750632809 0.0 0.0
15.65 0.0 0.0 0.9998875021093592 -0.01499943750632809 0.9998875021093592 -0.01499943750632809 0.0 0.0
15.675 0.0 0.0 0.9998875021093592 -0.01499943750632809 0.9998875021093592 -0.01499943750632809 0.0 0.0
15.7 0.0 0.0 0.9998875021093592 -0.01499943750632809 0.9998875021093592 -0.01499943750632809 0.0 0.0
15.725 0.0 0.0 0.9998875021093592 -0.01499943750632809 0.9998875021093592 -0.01499943750632809 0.0 0.0
15.75 0.0 0.0 0.9998875021093592 -0.01499943750632809 0.9998875021093592 -0.01499943750632809 0.0 0.0
15.775 0.0 0.0 0.9998875021093592 -0.01499943750632809 0.9998875021093592 -0.01499943750632809 0.0 0.0
15.8 0.0 0.0 0.9998875021093592 -0.01499943750632809 0.9998875021093592 -0.01499943750632809 0.0 0.0
15.825 0.0 0.0 0.9998875021093592 -0.01499943750632809 0.9998875021093592 -0.01499943750632809 0.0 0.0
15.85 0.0 0.0 0.9998875021093592 -0.01499943750632809 0.9998875021093592 -0.01499943750632809 0.0 0.0
15.875 0.0 0.0 0.9998875021093592 -0.01499943750632809 0.9998875021093592 -0.01499943750632809 0.0 0.0
15.9 0.0 0.0 0.9998875021093592 -0.01499943750632809 0.9998875021093592 -0.01499943750632809 0.0 0.0
15.925 0.0 0.0 0.9998875021093592 -0.01499943750632809 0.9998875021093592 -0.01499943750632809 0.0 0.0
15.95 0.0 0.0 0.9998875021093592 -0.01499943750632809 0.9998875021093592 -0.01499943750632809 0.0 0.0
15.975 0.0 0.0 0.9998875021093592 -0.01499943750632809 0.9998875021093592 -0.01499943750632809 0.0 0.0
16.0 0.0 0.0 0.9998875021093592 -0.01499943750632809 0.9998875021093592 -0.01499943750632809 0.0 0.0
16.025 0.0 0.0 0.9998875021093592 -0.01499943750632809 0.9998875021093592 -0.01499943750632809 0.0 0.0
16.05 0.0 0.0 0.9998875021093592 -0.01499943750632809 0.9998875021093592 -0.01499943750632809 0.0 0.0
16.075 0.0 0.0 0.9998875021093592 -0.01499943750632809 0.9998875021093592 -0.01499943750632809 0.0 0.0
16.1 0.0 0.0 0.9998875021093592 -0.01499943750632809 0.9998875021093592 -0.01499943750632809 0.0 0.0
16.125 0.0 0.0 0.9998875021093592 -0.01499943750632809 0.9998875021093592 -0.01499943750632809 0.0 0.0
16.15 0.0 0.0 0.9998875021093592 -0.01499943750632809 0.9998875021093592 -0.01499943750632809 0.0 0.0
16.175 0.0 0.0 0.9998875021093592 -0.01499943750632809 0.9998875021093592 -0.01499943750632809 0.0 0.0
16.2 0.0 0.0 0.9998875021093592 -0.01499943750632809 0.9998875021093592 -0.01499943750632809 0.0 0.0
16.225 0.0 0.0 0.9998875021093592 -0.01499943750632809 0.9998875021093592 -0.01499943750632809 0.0 0.0
16.25 0.0 0.0 0.9998875021093592 -0.01499943750632809 0.9998875021093592 -0.01499943750632809 0.0 0.0
16.275 0.0 0.0 0.9998875021093592 -0.01499943750632809 0.9998875021093592 -0.01499943750632809 0.0 0.0
16.3 0.0 0.0 0.9998875021093592 -0.01499943750632809 0.9998875021093592 -0.01499943750632809 0.0 0.0
16.325 0.0 0.0 0.9998875021093592 -0.01499943750632809 0.9998875021093592 -0.01499943750632809 0.0 0.0
16.35 0.0 0.0 0.9998875021093592 -0.01499943750632809 0.9998875021093592 -0.01499943750632809 0.0 0.0
16.375 0.0 0.0 0.9998875021093592 -0.01499943750632809 0.9998875021093592 -0.01499943750632809 0.0 0.0
16.4 0.0 0.0 0.9998875021093592 -0.01499943750632809 0.9998875021093592 -0.01499943750632809 0.0 0.0
16.425 0.0 0.0 0.9998875021093592 -0.01499943750632809 0.9998875021093592 -0.01499943750632809 0.0 0.0
16.45 0.0 0.0 0.9998875021093592 -0.01499943750632809 0.9998875021093592 -0.01499943750632809 0.0 0.0
16.475 0.0 0.0 0.9998875021093592 -0.01499943750632809 0.9998875021093592 -0.01499943750632809 0.0 0.0
16.5 0.0 0.0 0.9998875021093592 -0.01499943750632809 0.9998875021093592 -0.01499943750632809 0.0 0.0
16.525 0.0 0.0 0.9998875021093592 -0.01499943750632809 0.9998875021093592 -0.01499943750632809 0.0 0.0
16.55 0.0 0.0 0.9998875021093592 -0.01499943750632809 0.9998875021093592 -0.01499943750632809 0.0 0.0
16.575 0.0 0.0 0.9998875021093592 -0.01499943750632809 0.9998875021093592 -0.01499943750632809 0.0 0.0
16.6 0.0 0.0 0.9998875021093592 -0.01499943750632809 0.9998875021093592 -0.01499943750632809 0.0 0.0
16.625 0.0 0.0 0.9998875021093592 -0.01499943750632809 0.9998875021093592 -0.01499943750632809 0.0 0.0
16.65 0.0 0.0 0.9998875021093592 -0.01499943750632809 0.9998875021093592 -0.01499943750632809 0.0 0.0
16.675 0.0 0.0 0.9998875021093592 -0.01499943750632809 0.9998875021093592 -0.01499943750632809 0.0 0.0
16.7 0.0 0.0 0.9998875021093592 -0.01499943750632809 0.9998875021093592 -0.01499943750632809 0.0 0.0
16.725 0.0 0.0 0.9998875021093592 -0.01499943750632809 0.9998875021093592 -0.01499943750632809 0.0 0.0
16.75 0.0 0.0 0.9998875021093592 -0.01499943750632809 0.9998875021093592 -0.01499943750632809 0.0 0.0
16.775 0.0 0.0 0.9998875021093592 -0.01499943750632809 0.9998875021093592 -0.01499943750632809 0.0 0.0
16.8 0.0 0.0 0.9998875021093592 -0.01499943750632809 0.9998875021093592 -0.01499943750632809 0.0 0.0
16.825 0.0 0.0 0.9998875021093592 -0.01499943750632809 0.9998875021093592 -0.01499943750632809 0.0 0.0
16.85 0.0 0.0 0.9998875021093592 -0.01499943750632809 0.9998875021093592 -0.01499943750632809 0.0 0.0
16.875 0.0 0.0 0.9998875021093592 -0.01499943750632809 0.9998875021093592 -0.01499943750632809 0.0 0.0
16.9 0.0 0.0 0.9998875021093592 -0.01499943750632809 0.9998875021093592 -0.01499943750632809 0.0 0.0
16.925 0.0 0.0 0.9998875021093592 -0.01499943750632809 0.9998875021093592 -0.01499943750632809 0.0 0.0
16.95 0.0 0.0 0.9998875021093592 -0.01499943750632809 0.9998875021093592 -0.01499943750632809 0.0 0.0
16.975 0.0 0.0 0.9998875021093592 -0.01499943750632809 0.9998875021093592 -0.01499943750632809 0.0 0.0
17.0 0.0 0.0 0.9998875021093592 -0.01499943750632809 0.9998875021093592 -0.01499943750632809 0.0 0.0
17.025 0.0 0.0 0.9998875021093592 -0.01499943750632809 0.9998875021093592 -0.01499943750632809 0.0 0.0
17.05 0.0 0.0 0.9998875021093592 -0.01499943750632809 0.9998875021093592 -0.01499943750632809 0.0 0.0
17.075 0.0 0.0 0.9998875021093592 -0.01499943750632809 0.9998875021093592 -0.01499943750632809 0.0 0.0
17.1 0.0 0.0 0.9998875021093592 -0.01499943750632809 0.9998875021093592 -0.01499943750632809 0.0 0.0
17.125 0.0 0.0 0.9998875021093592 -0.01499943750632809 0.9998875021093592 -0.01499943750632809 0.0 0.0
17.15 0.0 0.0 0.9998875021093592 -0.01499943750632809 0.9998875021093592 -0.01499943750632809 0.0 0.0
17.175 0.0 0.0 0.9998875021093592 -0.01499943750632809 0.9998875021093592 -0.01499943750632809 0.0 0.0
17.2 0.0 0.0 0.9998875021093592 -0.01499943750632809 0.9998875021093592 -0.01499943750632809 0.0 0.0
17.225 0.0 0.0 0.9998875021093592 -0.01499943750632809 0.9998875021093592 -0.01499943750632809 0.0 0.0
17.25 0.0 0.0 0.9998875021093592 -0.01499943750632809 0.9998875021093592 -0.01499943750632809 0.0 0.0
17.275 0.0 0.0 0.9998875021093592 -0.01499943750632809 0.9998875021093592 -0.01499943750632809 0.0 0.0
17.3 0.0 0.0 0.9998875021093592 -0.01499943750632809 0.9998875021093592 -0.01499943750632809 0.0 0.0
17.325 0.0 0.0 0.9998875021093592 -0.01499943750632809 0.9998875021093592 -0.01499943750632809 0.0 0.0
17.35 0.0 0.0 0.9998875021093592 -0.01499943750632809 0.9998875021093592 -0.01499943750632809 0.0 0.0
17.375 0.0 0.0 0.9998875021093592 -0.01499943750632809 0.9998875021093592 -0.01499943750632809 0.0 0.0
17.4 0.0 0.0 0.9998875021093592 -0.01499943750632809 0.9998875021093592 -0.01499943750632809 0.0 0.0
17.425 0.0 0.0 0.9998875021093592 -0.01499943750632809 0.9998875021093592 -0.01499943750632809 0.0 0.0
17.45 0.0 0.0 0.9998875021093592 -0.01499943750632809 0.9998875021093592 -0.01499943750632809 0.0 0.0
17.475 0.0 0.0 0.9998875021093592 -0.01499943750632809 0.9998875021093592 -0.01499943750632809 0.0 0.0
17.5 0.0 0.0 0.9998875021093592 -0.01499943750632809 0.9998875021093592 -0.01499943750632809 0.0 0.0
17.525 0.0 0.0 0.9998875021093592 -0.01499943750632809 0.9998875021093592 -0.01499943750632809 0.0 0.0
17.55 0.0 0.0 0.9998875021093592 -0.01499943750632809 0.9998875021093592 -0.01499943750632809 0.0 0.0
17.575 0.0 0.0 0.9998875021093592 -0.01499943750632809 0.9998875021093592 -0.01499943750632809 0.0 0.0
17.6 0.0 0.0 0.9998875021093592 -0.01499943750632809 0.9998875021093592 -0.01499943750632809 0.0 0.0
17.625 0.0 0.0 0.9998875021093592 -0.01499943750632809 0.9998875021093592 -0.01499943750632809 0.0 0.0
17.65 0.0 0.0 0.9998875021093592 -0.01499943750632809 0.9998875021093592 -0.01499943750632809 0.0 0.0
17.675 0.0 0.0 0.9998875021093592 -0.01499943750632809 0.9998875021093592 -0.01499943750632809 0.0 0.0
17.7 0.0 0.0 0.9998875021093592 -0.01499943750632809 0.9998875021093592 -0.01499943750632809 0.0 0.0
17.725 0.0 0.0 0.9998875021093592 -0.01499943750632809 0.9998875021093592 -0.01499943750632809 0.0 0.0
17.75 0.0 0.0 0.9998875021093592 -0.01499943750632809 0.9998875021093592 -0.01499943750632809 0.0 0.0
17.775 0.0 0.0 0.9998875021093592 -0.01499943750632809 0.9998875021093592 -0.01499943750632809 0.0 0.0
17.8 0.0 0.0 0.9998875021093592 -0.01499943750632809 0.9998875021093592 -0.01499943750632809 0.0 0.0
17.825 0.0 0.0 0.9998875021093592 -0.01499943750632809 0.9998875021093592 -0.01499943750632809 0.0 0.0
17.85 0.0 0.0 0.9998875021093592 -0.01499943750632809 0.9998875021093592 -0.01499943750632809 0.0 0.0
17.875 0.0 0.0 0.9998875021093592 -0.01499943750632809 0.9998875021093592 -0.01499943750632809 0.0 0.0
17.9 0.0 0.0 0.9998875021093592 -0.01499943750632809 0.9998875021093592 -0.01499943750632809 0.0 0.0
17.925 0.0 0.0 0.9998875021093592 -0.01499943750632809 0.9998875021093592 -0.01499943750632809 0.0 0.0
17.95 0.0 0.0 0.9998875021093592 -0.01499943750632809 0.9998875021093592 -0.01499943750632809 0.0 0.0
17.975 0.0 0.0 0.9998875021093592 -0.01499943750632809 0.9998875021093592 -0.01499943750632809 0.0 0.0
18.0 0.0 0.0 0.9998875021093592 -0.01499943750632809 0.9998875021093592 -0.01499943750632809 0.0 0.0
